N C H
1.0
35.0 0.0 0.0
0.0 35.0 0.0
0.0 0.0 35.0
1 5 5 
Cartesian
1.572481449      0.254549158     -0.256481315
0.969359901     -0.903160318      0.044526135
-0.398158115     -1.028819113      0.280960430
-1.195805250      0.106557792      0.195397324
-0.587128291      1.317412387     -0.120105440
0.788547332      1.339705671     -0.332240527
1.613638914     -1.772181205      0.102345198
-0.818424770     -1.991737105      0.533563638
-2.260689643      0.049538649      0.373442796
-1.161812234      2.229500027     -0.200462573
1.288432016      2.268794361     -0.578526896
