N C H
1.0
35.0 0.0 0.0
0.0 35.0 0.0
0.0 0.0 35.0
1 5 5 
Cartesian
-0.523186614     -1.506921039      3.752171281
-1.455664707     -0.546291584      3.826022439
-1.193661669      0.804776840      3.616643058
0.105765664      1.194018123      3.306374649
1.085324972      0.211119968      3.223013185
0.722845252     -1.114017790      3.456206179
-2.458453954     -0.877246383      4.068215305
-1.992219426      1.529282275      3.694914151
0.347750222      2.233016605      3.130503394
2.107626211      0.457865713      2.974576205
1.466706017     -1.899572424      3.399757582
