N O H C
1.0
35.0 0.0 0.0
0.0 35.0 0.0
0.0 0.0 35.0 
1 1 7 3 
Cartesian
-0.801653517 -0.027354614 0.088341667
-2.749526378 -0.651537758 1.056760868
0.184343962 -0.011047317 2.416185420
-0.882497908 -1.342051398 2.912703097
-1.390802629 0.316878284 3.168428969
0.161187556 0.240360347 0.218713639
-1.891617202 -0.942801228 -1.440096314
-2.119972302 0.796211805 -1.330879524
-0.594645935 0.149570655 -1.963127724
-0.849316722 -0.339498757 2.491716638
-1.564031922 -0.353323105 1.159475446
-1.385349861 -0.002351490 -1.234136826
