N O H C
1.0
35.0 0.0 0.0
0.0 35.0 0.0
0.0 0.0 35.0 
1 2 11 4
Cartesian
-0.801653517 -0.027354614 0.088341667
-2.749526378 -0.651537758 1.056760868
2.161854703 0.252163619 0.456667133
0.184343962 -0.011047317 2.416185420
-0.882497908 -1.342051398 2.912703097
-1.390802629 0.316878284 3.168428969
0.161187556 0.240360347 0.218713639
-1.891617202 -0.942801228 -1.440096314
-2.119972302 0.796211805 -1.330879524
-0.594645935 0.149570655 -1.963127724
2.882709511 0.879463243 0.547081945
1.848367360 -1.741989725 0.584972354
3.447077622 -1.322194782 -0.036331851
3.089035906 -1.154651233 1.696183413
-0.849316722 -0.339498757 2.491716638
-1.564031922 -0.353323105 1.159475446
-1.385349861 -0.002351490 -1.234136826
2.680938863 -1.053202035 0.690548923

