C O H
1.0
35.0 0.0 0.0
0.0 35.0 0.0
0.0 0.0 35.0 
1 1 4 
Cartesian
2.680938863 -1.053202035 0.690548923
2.161854703 0.252163619 0.456667133
2.882709511 0.879463243 0.547081945
1.848367360 -1.741989725 0.584972354
3.447077622 -1.322194782 -0.036331851
3.089035906 -1.154651233 1.696183413
