C H
1.0
35.0 0.0 0.0
0.0 35.0 0.0
0.0 0.0 35.0 
2 2 
Cartesian
0.708425446 -0.172222301 3.287076701
-0.436178639 0.214235385 3.393268543
1.704243716 -0.526208154 3.172857971
-1.441061194 0.542935727 3.493632709
