N O H C
1.0
35.0 0.0 0.0
0.0 35.0 0.0
0.0 0.0 35.0
1 1 19 8  
Cartesian
-0.950028843      0.344886797      0.773914914
 0.618821276     -1.252481304      1.171281257
 0.952176233      2.014049548      1.033117247
 1.947421697      0.926515596      0.050717756
 2.051702084      0.851825168      1.802952467
-1.104671561      1.322025495      0.606112159
-1.669356016     -1.566796005      0.897184251
-2.834591759     -0.331380325      1.403661394
-2.490970503     -0.578924829     -0.319939259
 2.781750454      1.220132997      4.124336249
 2.578800799      0.990603425      5.854737130
 3.577002612     -0.128524806      4.929889082
 1.342069592     -1.143124411      5.438580358
 1.553059075     -0.951134737      3.711685720
 0.042530780      0.998678422      5.503311816
 0.233335247      1.153758447      3.770575519
-1.181057155     -1.143878182      5.184765499
-0.962448184     -1.018329425      3.453133821
-2.290180449      1.117950793      3.445464315
-3.242435902     -0.205117680      4.119400641
-2.507449728      0.987110901      5.186453142
 1.372190931      1.012477363      0.970824683
 0.326737060     -0.077647271      0.988198764
-2.059854399     -0.577368949      0.680153489
 2.664911170      0.465717102      4.903081073
 1.436638945     -0.397670409      4.645529523
 0.154101099      0.420943539      4.580228172
-1.090255190     -0.429391695      4.363348274
-2.357093685      0.410899811      4.273233548
