N C H
1.0
35.0 0.0 0.0
0.0 35.0 0.0
0.0 0.0 35.0
4 8 8 
Cartesian
-0.258951000     -1.723577000      1.414480000
-0.258951000     -1.723577000     -1.414480000
 1.470179000      0.990760000      0.000000000
-0.952306000      2.452884000      0.000000000
-1.247189000     -1.171821000     -0.696139000
-1.247189000     -1.171821000      0.696139000
 0.731533000     -2.265222000      0.696729000
 0.731533000     -2.265222000     -0.696729000
-0.338003000      2.080061000      1.130045000
 0.854025000      1.359347000      1.130631000
 0.854025000      1.359347000     -1.130631000
-0.338003000      2.080061000     -1.130045000
-2.063436000     -0.722320000     -1.247280000
-2.063436000     -0.722320000      1.247280000
 1.548800000     -2.712828000      1.247560000
 1.548800000     -2.712828000     -1.247560000
-0.810376000      2.364303000      2.061864000
 1.320858000      1.067061000      2.062399000
 1.320858000      1.067061000     -2.062399000
-0.810376000      2.364303000     -2.061864000
