N C H
1.0
35.0 0.0 0.0
0.0 35.0 0.0
0.0 0.0 35.0 
2 4 4 
Cartesian
-0.258951000     -1.723577000      1.414480000
-0.258951000     -1.723577000     -1.414480000
-1.247189000     -1.171821000     -0.696139000
-1.247189000     -1.171821000      0.696139000
 0.731533000     -2.265222000      0.696729000
 0.731533000     -2.265222000     -0.696729000
-2.063436000     -0.722320000     -1.247280000
-2.063436000     -0.722320000      1.247280000
 1.548800000     -2.712828000      1.247560000
 1.548800000     -2.712828000     -1.247560000
