N O H C
1.0
35.0 0.0 0.0
0.0 35.0 0.0
0.0 0.0 35.0
4 4 8 8 
Cartesian
-0.729999134      0.022767626      0.000914648
-2.774836844      1.105408947     -0.001418075
4.152727849     -1.086167522      0.000499322
2.206396803     -2.315895883      0.000905559
-0.594098857     -2.253517508      0.002633705
-0.839843713      2.317035280     -0.001001251
6.218227642     -2.049080897     -0.001749754
2.128846857     -0.030012537      0.002692599
0.298422555      0.074004465      0.001623038
-3.249590454     -2.211835169      0.000833106
-4.500897091     -0.049216027     -0.001745463
-3.283838068      1.973877391     -0.002485743
4.599971632     -0.179594322      0.000886138
4.861141738     -4.377989600     -0.002643584
2.367424976     -4.379741488     -0.000863530
1.180060543     -2.337338682      0.001582628
-1.296824528     -1.240426820      0.001502336
-2.743622291     -1.262331701      0.000479378
-3.422019974     -0.095909207     -0.000922590
-1.391478664      1.237019779     -0.000525382
5.008775619     -2.200785312     -0.001000555
4.294557189     -3.462958850     -0.001504949
2.944388213     -3.466776722     -0.000544853
2.779167741     -1.071230842      0.001456206
