N O H C
1.0
35.0 0.0 0.0
0.0 35.0 0.0
0.0 0.0 35.0
2 2 4 4  
Cartesian
4.152727849     -1.086167522      0.000499322
2.206396803     -2.315895883      0.000905559
6.218227642     -2.049080897     -0.001749754
2.128846857     -0.030012537      0.002692599
4.599971632     -0.179594322      0.000886138
4.861141738     -4.377989600     -0.002643584
2.367424976     -4.379741488     -0.000863530
1.180060543     -2.337338682      0.001582628
5.008775619     -2.200785312     -0.001000555
4.294557189     -3.462958850     -0.001504949
2.944388213     -3.466776722     -0.000544853
2.779167741     -1.071230842      0.001456206
