N H
1.0
35.0 0.0 0.0
0.0 35.0 0.0
0.0 0.0 35.0
2 6  
Cartesian
-1.578718000     -0.046611000      0.000000000
 1.578718000      0.046611000      0.000000000
-2.158621000      0.136396000     -0.809565000
-2.158621000      0.136396000      0.809565000
-0.849471000      0.658193000      0.000000000
 2.158621000     -0.136396000     -0.809565000
 0.849471000     -0.658193000      0.000000000
 2.158621000     -0.136396000      0.809565000
