N C H
1.0
35.0 0.0 0.0
0.0 35.0 0.0
0.0 0.0 35.0 
2 4 4 
Cartesian
 1.470179000      0.990760000      0.000000000
-0.952306000      2.452884000      0.000000000
-0.338003000      2.080061000      1.130045000
 0.854025000      1.359347000      1.130631000
 0.854025000      1.359347000     -1.130631000
-0.338003000      2.080061000     -1.130045000
-0.810376000      2.364303000      2.061864000
 1.320858000      1.067061000      2.062399000
 1.320858000      1.067061000     -2.062399000
-0.810376000      2.364303000     -2.061864000
