C H
1.0
35.0 0.0 0.0
0.0 35.0 0.0
0.0 0.0 35.0
5 10  
Cartesian
 0.799914079     -1.022051643      0.687736956
 1.116887003      0.424952788      1.099662054
-0.244559155      1.165689590      1.102977140
-1.298714178      0.103811907      0.739308994
-0.646879933     -1.220068359      1.136306600
 0.853555876     -1.122051012     -0.398014355
 1.491402098     -1.744169358      1.119720403
 1.838142304      0.890145042      0.430452563
 1.555569586      0.439824638      2.097083555
-0.258077602      2.000863135      0.405323332
-0.448804499      1.576995819      2.090984469
-1.473560779      0.105243377     -0.338005451
-2.256734278      0.278041178      1.227158427
-1.124439184     -2.087627024      0.682993267
-0.686018645     -1.345283315      2.220220065
