N O H C
1.0
35.0 0.0 0.0
0.0 35.0 0.0
0.0 0.0 35.0
2 2 4 4 
Cartesian
-0.208904778     -0.964582623      0.534761041
 0.985452099      1.000824122      0.611206364
-2.461236755     -1.010791610      0.197891960
 2.049196699     -0.997395477      0.937259786
-0.224150986     -1.973109396      0.605083859
-2.256572142      1.667730712      0.049847314
-0.046290462      2.782445909      0.333349682
 1.867559779      1.466927772      0.744784302
-1.446342078     -0.344581120      0.306658576
-1.357782195      1.103185589      0.228143785
-0.163003197      1.709892571      0.381126322
 1.027020915     -0.379170109      0.712647232
