C O H
1.0
35.0 0.0 0.0
0.0 35.0 0.0
0.0 0.0 35.0 
7 2 16 
Cartesian
-2.275344982 -0.135074939 0.831333870
-0.961698124 0.619277891 0.669399201
0.226502174 -0.314710314 0.479985794
1.543001678 0.421174521 0.268999505
2.727576325 -0.526860908 0.137459311
-0.498601637 -0.291764704 4.198270478
0.941665426 0.117901377 4.215475861
-0.921215577 -1.406944951 4.001123899
-1.312293995 0.767200814 4.430859958
-2.490717763 -0.727926686 -0.057566351
-2.226323818 -0.818446408 1.678823407
-3.112025664 0.544943419 0.987400079
-0.788699202 1.250431809 1.544702661
-1.026176875 1.295445240 -0.186458382
0.309444388 -0.975139115 1.348037935
0.039150560 -0.965998753 -0.378789833
1.711638628 1.107771769 1.102446539
1.466094657 1.043743312 -0.625293582
2.588741553 -1.203213913 -0.705757340
3.661501004 0.011693084 -0.015968628
2.835194072 -1.137409942 1.034075121
-2.213056104 0.412820276 4.390324218
1.567488491 -0.752279568 4.057320702
1.117702840 0.852175011 3.432351281
1.178976673 0.587202331 5.167278252
