C O H
1.0
35.0 0.0 0.0
0.0 35.0 0.0
0.0 0.0 35.0
2 2 4 
Cartesian
-0.498601637     -0.291764704      4.198270478
 0.941665426      0.117901377      4.215475861
-0.921215577     -1.406944951      4.001123899
-1.312293995      0.767200814      4.430859958
-2.213056104      0.412820276      4.390324218
 1.567488491     -0.752279568      4.057320702
 1.117702840      0.852175011      3.432351281
 1.178976673      0.587202331      5.167278252
