O C H
1.0
35.0 0.0 0.0
0.0 35.0 0.0
0.0 0.0 35.0 
1 6 6 
Cartesian
1.353117000      1.938272000      0.472313000
2.036975000      0.786504000      0.149549000
1.590403000      0.069686000     -0.957415000
2.241737000     -1.106977000     -1.312811000
3.331567000     -1.566560000     -0.574864000
3.769684000     -0.839690000      0.528644000
3.122484000      0.338350000      0.896049000
1.784285000      2.348749000      1.229711000
0.744551000      0.436798000     -1.521858000
1.892146000     -1.664973000     -2.170184000
3.833023000     -2.481154000     -0.856667000
4.613763000     -1.185010000      1.109263000
3.459885000      0.903038000      1.756949000
