O H
1.0
35.0 0.0 0.0
0.0 35.0 0.0
0.0 0.0 35.0 
1 2 
Cartesian
2.288573010 -0.146516898 -0.116210399
2.858929425 -0.736286279 0.380816527
2.860568852 0.204471124 -0.801582553
