C O H
1.0
35.0 0.0 0.0
0.0 35.0 0.0
0.0 0.0 35.0
2 1 4 
Cartesian
-1.006867219     -0.030568213     -0.024772854
-2.218743796      0.003173470      0.002599196
 2.288573010     -0.146516898     -0.116210399
 0.059003329     -0.060939737     -0.049365618
-3.279277302      0.033524906      0.027200480
 2.858929425     -0.736286279      0.380816527
 2.860568852      0.204471124     -0.801582553
