C H
1.0
35.0 0.0 0.0
0.0 35.0 0.0
0.0 0.0 35.0 
2 2 
Cartesian
-1.006867219 -0.030568213 -0.024772854
-2.218743796 0.003173470 0.002599196
0.059003329 -0.060939737 -0.049365618
-3.279277302 0.033524906 0.027200480
