C H
1.0
35.0 0.0 0.0
0.0 35.0 0.0
0.0 0.0 35.0 
2 4 
Cartesian
0.726466589 0.025638074 3.415331819
-0.602309912 0.126228522 3.366084890
1.243584326 -0.845349822 3.038105224
1.332077594 0.812632118 3.842646153
-1.214312799 -0.661251068 2.949184172
-1.114134903 0.997298113 3.750084655
