O H
1.0
35.0 0.0 0.0
0.0 35.0 0.0
0.0 0.0 35.0 
2 4 
Cartesian
-1.551007000     -0.114520000      0.000000000
 1.350625000      0.111469000      0.000000000
-1.934259000      0.762503000      0.000000000
-0.599677000      0.040712000      0.000000000
 1.680398000     -0.373741000     -0.758561000
 1.680398000     -0.373741000      0.758561000
