O H
1.0
35.0 0.0 0.0
0.0 35.0 0.0
0.0 0.0 35.0 
1 2 
Cartesian
1.350625000 0.111469000 0.000000000
1.680398000 -0.373741000 -0.758561000
1.680398000 -0.373741000 0.758561000
