C H
1.0
35.0 0.0 0.0
0.0 35.0 0.0
0.0 0.0 35.0 
5 10 
Cartesian
-0.764772305 -0.729106855 4.030677055
0.704768881 -0.986169945 4.374806934
1.344905927 0.419226729 4.465759790
0.165859804 1.418403747 4.492631826
-1.067911961 0.561308558 4.788280691
-0.871026146 -0.554157695 2.958370190
-1.416409880 -1.558370751 4.303827720
1.199999661 -1.623754993 3.644222656
0.768048056 -1.486383718 5.342273570
1.995174243 0.611897662 3.613906866
1.957773110 0.508396152 5.361485152
0.048708316 1.877374140 3.510346488
0.311453394 2.219908577 5.215030429
-1.998900471 1.037046004 4.482367547
-1.133337724 0.351987646 5.858815933
