C H
1.0
35.0 0.0 0.0
0.0 35.0 0.0
0.0 0.0 35.0 
6 6 
Cartesian
0.765545459 0.868244327 0.820990952
1.237652602 -0.442838075 0.793887953
0.372237234 -1.488536665 0.477268618
-0.964933181 -1.222971623 0.186878335
-1.437065095 0.088405576 0.213277138
-0.571906490 1.134024158 0.530812805
1.437476465 1.680006636 1.065102812
2.275758774 -0.648538076 1.017711411
0.738187887 -2.506080122 0.457056091
-1.636459485 -2.034560785 -0.057773618
-2.474684317 0.294302156 -0.011467463
-0.937699351 2.151710583 0.551077644
