O H
1.0
35.0 0.0 0.0
0.0 35.0 0.0
0.0 0.0 35.0 
1 2 
Cartesian
-1.551007000 -0.114520000 0.000000000
-1.934259000 0.762503000 0.000000000
-0.599677000 0.040712000 0.000000000
