N O H C
1.0
35.0 0.0 0.0
0.0 35.0 0.0
0.0 0.0 35.0
1 1 7 5  
Cartesian
2.405644250 0.098722763 0.000155304
-0.552831024 -0.101697490 -0.000498788
-0.871759633 0.801792198 0.000144400
0.412659497 -0.001832248 -0.000251810
2.516878338 0.088362913 2.055771178
4.996480862 -0.025284616 2.149228336
6.281577577 -0.085329812 -0.000092360
4.996226275 -0.025370143 -2.149211830
2.516630431 0.088298530 -2.055459522
3.101550889 0.064751971 1.144903150
4.490574481 -0.000430461 1.194899214
5.201737626 -0.033556259 -0.000011932
4.490429328 -0.000497116 -1.194813229
3.101399314 0.064697875 -1.144666969
