O H
1.0
35.0 0.0 0.0
0.0 35.0 0.0
0.0 0.0 35.0
1 2  
Cartesian
-0.552831024 -0.101697490 -0.000498788
-0.871759633 0.801792198 0.000144400
0.412659497 -0.001832248 -0.000251810
