N C H
1.0
35.0 0.0 0.0
0.0 35.0 0.0
0.0 0.0 35.0
1 5 5 
Cartesian
-2.372852862      0.149620261      3.427366186
-1.757966931      1.307288071      3.707430376
-0.375752033      1.448135807      3.797601192
 0.425199358      0.331156503      3.583387281
-0.195352545     -0.877498535      3.289727704
-1.585866822     -0.915536418      3.224278286
-2.405570988      2.160459524      3.869942469
 0.056096725      2.411785922      4.028817489
 1.502768526      0.401540781      3.638221791
 0.380421965     -1.773120418      3.105652767
-2.094719747     -1.843989796      2.995435612
