C H
1.0
35.0 0.0 0.0
0.0 35.0 0.0
0.0 0.0 35.0 
2 4 
Cartesian
-0.471925000 0.471925000 1.859111000
0.471925000 -0.471925000 1.859111000
-0.872422000 0.872422000 0.936125000
0.872422000 -0.872422000 0.936125000
-0.870464000 0.870464000 2.783308000
0.870464000 -0.870464000 2.783308000
