N O H C
1.0
35.0 0.0 0.0
0.0 35.0 0.0
0.0 0.0 35.0 
1 1 7 1 
Cartesian
-0.533463968 -0.279593512 0.106995757
2.128936430 0.931124077 0.210755642
-0.629151376 -1.248424552 0.382848668
-1.122603635 -0.166159444 -0.707764101
-0.912759674 1.625551742 0.879521158
-2.054737265 0.415082130 1.478503595
-0.385023376 0.448800896 2.060614186
1.311419022 0.434851589 0.037602740
2.710837879 0.672626207 -0.504990451
-1.016909428 0.588486102 1.187373456
