O H
1.0
35.0 0.0 0.0
0.0 35.0 0.0
0.0 0.0 35.0 
1 2 
Cartesian
2.128936430 0.931124077 0.210755642
1.311419022 0.434851589 0.037602740
2.710837879 0.672626207 -0.504990451
