C O H
1.0
35.0 0.0 0.0
0.0 35.0 0.0
0.0 0.0 35.0
2 2 4  
Cartesian
-1.061709204 1.297140572 0.292060003
-2.558427798 1.342549823 0.296257320
-0.358161116 2.270458613 0.531812668
-0.589303516 0.094917758 0.003788813
0.404435659 0.127722621 0.018411838
-2.895997978 2.347464002 0.518316340
-2.932889278 1.022390451 -0.672995551
-2.937211960 0.644910433 1.039557084
