C O H
1.0
35.0 0.0 0.0
0.0 35.0 0.0
0.0 0.0 35.0
2 2 4  
Cartesian
2.799564974 1.108464452 0.271261944
4.296277422 1.062561706 0.269297549
2.095946609 0.135149964 0.031474342
2.327138640 2.310899840 0.559040415
1.333350100 2.278001606 0.544639911
4.633856986 0.061242513 0.031772054
4.677775967 1.772914645 -0.460171349
4.667793733 1.365256223 1.245352910
