N C H
1.0
35.0 0.0 0.0
0.0 35.0 0.0
0.0 0.0 35.0
1 7 11 
Cartesian
 0.274645262     -0.223105490      3.863180091
 0.692315234      1.088292040      0.324841241
 1.318187219     -0.156870079      0.286896073
 0.558018413     -1.321950449      0.381399863
-0.827552361     -1.241421869      0.511685015
-1.453411383      0.003671449      0.548381072
-0.693460943      1.168401084      0.456229070
-1.101454213     -0.629488899      4.140615883
 1.281948804      1.991946780      0.252515784
 2.393143372     -0.219476358      0.188406812
 1.043919224     -2.287573802      0.357615421
-1.416700950     -2.145251521      0.585339272
-2.528232546      0.065702716      0.649842537
-1.178735338      2.134409890      0.485726845
 0.409263619     -0.179064988      2.860108734
 0.416137833      0.722041246      4.195652368
-1.259330779     -0.658035906      5.217171419
-1.872756400      0.010891890      3.700496885
-1.256146194     -1.639056701      3.764994183

