N C H
1.0
35.0 0.0 0.0
0.0 35.0 0.0
0.0 0.0 35.0
1 1 5
Cartesian
 0.274645262     -0.223105490      3.863180091
-1.101454213     -0.629488899      4.140615883
 0.409263619     -0.179064988      2.860108734
 0.416137833      0.722041246      4.195652368
-1.259330779     -0.658035906      5.217171419
-1.872756400      0.010891890      3.700496885
-1.256146194     -1.639056701      3.764994183

