 C  O 
 1.0000000000000000
    35.0000000000000000    0.0000000000000000    0.0000000000000000
     0.0000000000000000   35.0000000000000000    0.0000000000000000
     0.0000000000000000    0.0000000000000000   35.0000000000000000
 C   O  
   2   4
Cartesian
  0.0000000000000000  0.0569860000000000  0.0000000000000000
 -0.0014949580000000  4.9271764280000001  0.0075437740000000
  0.0000000000000000  1.2272060000000000  0.0000000000000000
  0.0000000000000000 -1.1132340000000001  0.0000000000000000
 -0.0167259070000000  4.9183265220000001  1.1776311829999999
  0.0137359910000000  4.9360263340000001 -1.1625436360000001
