 C  O 
 1.0000000000000000
    35.0000000000000000    0.0000000000000000    0.0000000000000000
     0.0000000000000000   35.0000000000000000    0.0000000000000000
     0.0000000000000000    0.0000000000000000   35.0000000000000000
 C   O  
   1   2
Cartesian
 -0.0014949580000000  5.3271764279999996  0.0075437740000000
 -0.0167259070000000  5.3183265219999996  1.1776311829999999
  0.0137359910000000  5.3360263339999996 -1.1625436360000001
