 C  O 
 1.0000000000000000
    35.0000000000000000    0.0000000000000000    0.0000000000000000
     0.0000000000000000   35.0000000000000000    0.0000000000000000
     0.0000000000000000    0.0000000000000000   35.0000000000000000
 C   O  
   1   2
Cartesian
 -0.0014949580000000  4.1271764280000003  0.0075437740000000
 -0.0167259070000000  4.1183265220000003  1.1776311829999999
  0.0137359910000000  4.1360263340000003 -1.1625436360000001
