 C  O 
 1.0000000000000000
    35.0000000000000000    0.0000000000000000    0.0000000000000000
     0.0000000000000000   35.0000000000000000    0.0000000000000000
     0.0000000000000000    0.0000000000000000   35.0000000000000000
 C   O  
   1   2
Cartesian
 -0.0014949580000000  2.2271764279999999  0.0075437740000000
 -0.0167259070000000  2.2183265219999999  1.1776311829999999
  0.0137359910000000  2.2360263339999999 -1.1625436360000001
