N C H
1.0
35.0 0.0 0.0
0.0 35.0 0.0
0.0 0.0 35.0 
1 5 5 
Cartesian
2.358641048 -1.260256845 0.031331334
2.697077364 -0.447912780 -0.980381142
3.668406626 0.544221015 -0.880014138
4.329246693 0.713762453 0.332250300
3.989113784 -0.121200072 1.391373253
3.005332219 -1.085989080 1.192189872
2.154410145 -0.592450761 -1.905762501
3.893259066 1.168561302 -1.732864831
5.087100638 1.475999789 0.448634429
4.471702190 -0.030737833 2.354073907
2.719247889 -1.749736688 1.998800529
