N C H
1.0
35.0 0.0 0.0
0.0 35.0 0.0
0.0 0.0 35.0 
1 1 5 
Cartesian
-0.541059198 0.029576202 -0.208995077
-0.078799266 1.042390365 0.738458862
0.055553351 -0.786118099 -0.130293346
-1.469669404 -0.274708452 0.053143382
-0.720152936 1.919413767 0.671980262
-0.050758189 0.723822930 1.785514529
0.926430724 1.356603792 0.461999188
