N C H
1.0
35.0 0.0 0.0
0.0 35.0 0.0
0.0 0.0 35.0 
1 5 5 
Cartesian
0.023538980 0.358823115 6.741095222
0.178222800 1.296784720 5.796218342
0.164013533 1.029494955 4.429718904
-0.020324778 -0.282134730 4.004428473
-0.182173704 -1.267169063 4.973287562
-0.152971231 -0.899835962 6.316377068
0.319993627 2.309310725 6.154120068
0.294253591 1.830520753 3.715833492
-0.036891231 -0.525253397 2.951080540
-0.328716725 -2.302380031 4.698516048
-0.276567365 -1.647349931 7.090478065
