N C H
1.0
35.0 0.0 0.0
0.0 35.0 0.0
0.0 0.0 35.0 
1 1 5 
Cartesian
2.231913573 -0.038132577 -0.003412437
2.709665509 -1.424166024 0.034048768
2.602533125 0.469643929 0.789719954
2.602656413 0.426205990 -0.822671271
2.317780672 -1.958191301 -0.828142961
3.796376665 -1.530901192 0.037083263
2.317539108 -1.910896193 0.9236809150
