C O H
1.0
35.0 0.0 0.0
0.0 35.0 0.0
0.0 0.0 35.0 
1 1 4 
Cartesian
-1.076670667 -1.313915813 0.001614280
-0.706920192 0.045830367 0.006386104
0.265623615 0.071710143 0.001339293
-2.162923576 -1.363195770 0.005865424
-0.723405945 -1.844651676 -0.887743498
-0.716079778 -1.852820828 0.883079775
