N O H C
1.0
35.0 0.0 0.0
0.0 35.0 0.0
0.0 0.0 35.0 
1 1 9 2 
Cartesian
2.231913573 -0.038132577 -0.003412437
-0.706920192 0.045830367 0.006386104
0.265623615 0.071710143 0.001339293
-2.162923576 -1.363195770 0.005865424
-0.723405945 -1.844651676 -0.887743498
-0.716079778 -1.852820828 0.883079775
2.602533125 0.469643929 0.789719954
2.602656413 0.426205990 -0.822671271
2.317780672 -1.958191301 -0.828142961
3.796376665 -1.530901192 0.037083263
2.317539108 -1.910896193 0.923680915
-1.076670667 -1.313915813 0.001614280
2.709665509 -1.424166024 0.034048768

