C H
1.0
35.0 0.0 0.0
0.0 35.0 0.0
0.0 0.0 35.0 
2 4 
Cartesian
0.655780464 -0.116790432 3.458587260
-0.655776055 0.116792199 3.458596151
1.047241240 -1.123909260 3.454118994
1.370854248 0.693273542 3.454085672
-1.370848002 -0.693272319 3.454100063
-1.047239164 1.123911097 3.454137953
