C H
1.0
35.0 0.0 0.0
0.0 35.0 0.0
0.0 0.0 35.0 
5 12 
Cartesian
-2.533308650 -0.294879067 0.713148758
-1.271884866 0.557655468 0.674354677
-0.000135043 -0.278418218 0.719603148
1.271894760 0.557382187 0.674061079
2.533403758 -0.294941760 0.713280149
-2.563626820 -0.977081809 -0.136422641
-2.566978352 -0.895875900 1.621731768
-3.434426110 0.315957131 0.684104472
-1.271026303 1.256565714 1.514319405
-1.266632549 1.167895814 -0.231826531
-0.000159375 -0.887229516 1.628637086
-0.000365425 -0.980714184 -0.119404392
1.270971755 1.256633312 1.513705410
1.266636490 1.167182502 -0.232386925
2.563919186 -0.977774101 -0.135778362
3.434309555 0.316254316 0.683599450
2.567558205 -0.895208868 1.622328649
