N O H C
1.0
35.0 0.0 0.0
0.0 35.0 0.0
0.0 0.0 35.0
1 1 7 3 
Cartesian
-0.163886163 -0.362740138 3.678740757
0.493137512 0.150615189 5.796519912
-0.112789658 2.121870561 3.228980252
1.269939002 2.312849284 4.323714531
-0.358741432 2.529775547 4.940625741
-0.325014063 -0.004749397 2.752672417
-0.122591466 -1.956526903 4.966824048
-1.135919572 -2.207969943 3.530089705
0.628447441 -2.293492131 3.399490385
0.245355441 1.956139718 4.242273022
0.208509107 0.502976606 4.657981849
-0.200679036 -1.789619367 3.896827817
