N C H
1.0
35.0 0.0 0.0
0.0 35.0 0.0
0.0 0.0 35.0
2 5 6 
Cartesian
1.432762000      0.363970000     -0.015951000
1.388312000     -1.908304000      0.419815000
2.115420000     -0.780345000      0.168110000
3.523759000     -0.801610000      0.154503000
4.218590000      0.373578000     -0.052593000
3.509971000      1.561501000     -0.244976000
2.128014000      1.495332000     -0.217537000
4.045921000     -1.736136000      0.307688000
5.299943000      0.366601000     -0.066335000
4.011092000      2.502431000     -0.413005000
1.533988000      2.389384000     -0.367057000
1.869471000     -2.781277000      0.294038000
0.408907000     -1.907994000      0.130086000

