O N C H
1.0
35.0 0.0 0.0
0.0 35.0 0.0
0.0 0.0 35.0
1 1 5 5  
Cartesian
-1.397621000     -1.885837000     -0.367306000
-1.464255000      0.364183000      0.019230000
-4.185740000      0.369667000      0.036096000
-3.483260000      1.578311000      0.250075000
-2.117950000      1.530705000      0.233838000
-2.077383000     -0.863749000     -0.189941000
-3.515603000     -0.805195000     -0.175759000
-5.267804000      0.370743000      0.041142000
-3.992033000      2.512756000      0.421441000
-1.492920000      2.398410000      0.388502000
-4.040123000     -1.734845000     -0.337927000
-0.426527000      0.361213000      0.007354000
