N C H
1.0
35.0 0.0 0.0
0.0 35.0 0.0
0.0 0.0 35.0
1 5 5  
Cartesian
 1.322762722     -0.010375977      1.019183728
 0.651286010     -1.148992028      0.796801192
-0.672681303     -1.194711724      0.366656928
-1.347196755      0.003133988      0.152144011
-0.664557967      1.194090624      0.379001986
 0.658895764      1.134978544      0.808859868
 1.200418421     -2.065528084      0.973672822
-1.157193621     -2.147321411      0.206464071
-2.375356526      0.008405422     -0.182293017
-1.142626333      2.151557646      0.228720506
 1.214102717      2.045910451      0.995438309
