N C H
1.0
35.0 0.0 0.0
0.0 35.0 0.0
0.0 0.0 35.0 
1 5 5 
Cartesian
 0.455859206      0.001414936      6.761518371
 1.326527223     -0.004197855      5.742105338
 0.953141487     -0.011265616      4.400277266
-0.402907070     -0.012679680      4.087861800
-1.321010334     -0.006964594      5.133031414
-0.845406530     -0.000046939      6.441990264
 2.374383797     -0.002949330      6.016408130
 1.700602150     -0.015429635      3.619177618
-0.732635749     -0.018135157      3.057580352
-2.385460370     -0.007813984      4.944295628
-1.537590193      0.004536190      7.275181469
