O H      
1.0
35.0 0.0 0.0
0.0 35.0 0.0
0.0 0.0 35.0
1 2 
Cartesian
2.131138741 -0.058169453 -0.156716075
2.696116025 -0.771128074 -0.461915481
2.710890359 0.706024111 -0.132817581
