O C N H
1.0
35.0 0.0 0.0
0.0 35.0 0.0
0.0 0.0 35.0
2 3 1 9  
Cartesian
-2.837323872     -0.415022087      1.194132775
2.131138741     -0.058169453     -0.156716075
-0.724304641     -0.704935825      2.283867859
-1.614935007     -0.387429252      1.104068969
-1.658123974      0.250093582     -1.258553059
-0.953420370     -0.076404425     -0.040819796
0.335318283     -0.629943250      2.053182351
-0.951696658     -1.711989614      2.625651462
-0.969627843     -0.022079551      3.093765375
0.053808603     -0.075566509     -0.036640221
-2.720371971      0.176944439     -1.046652698
-1.430304932      1.262962631     -1.588093844
-1.405626109     -0.444335178     -2.058583584
 2.696116025     -0.771128074     -0.461915481
 2.710890359      0.706024111     -0.132817581
