C H
1.0
35.0 0.0 0.0
0.0 35.0 0.0
0.0 0.0 35.0 
2 2 
Cartesian
-0.601729956 -0.028570118 0.384934916
0.610109174 -0.028663644 0.388163788
-1.663735430 -0.028526566 0.379014311
1.672135444 -0.028793082 0.387967520
