C H
1.0
35.0 0.0 0.0
0.0 35.0 0.0
0.0 0.0 35.0 
2 2 
Cartesian
-0.007422226 0.101064182 4.163366909
-0.011358649 0.139354205 5.374832292
-0.004027846 0.067329130 3.100070027
-0.014624881 0.172730086 6.435743710
