C H
1.0
35.0 0.0 0.0
0.0 35.0 0.0
0.0 0.0 35.0 
4 4 
Cartesian
-0.601729956 -0.028570118 0.384934916
0.610109174 -0.028663644 0.388163788
-0.007422226 0.101064182 4.163366909
-0.011358649 0.139354205 5.374832292
-1.663735430 -0.028526566 0.379014311
1.672135444 -0.028793082 0.387967520
-0.004027846 0.067329130 3.100070027
-0.014624881 0.172730086 6.435743710
