C O H
1.0
35.0 0.0 0.0
0.0 35.0 0.0
0.0 0.0 35.0 
1 2 6 
Cartesian
-1.247990941     -1.290283536      0.001083621
-0.786562022      0.045168441     -0.007189119
2.161848924     -0.052418455     -0.004705549
0.177706774      0.012695896     -0.006835389
-2.334277443     -1.258897100      0.000221200
-0.925965746     -1.849768096     -0.880445382
-0.927027831     -1.838462882      0.890076520
2.601053063      0.335733744     -0.764578231
2.599733218      0.350185824      0.748383983

