O H 
1.0
35.0 0.0 0.0
0.0 35.0 0.0
0.0 0.0 35.0 
1 2 
Cartesian
2.161848924     -0.052418455     -0.004705549
2.601053063 0.335733744 -0.764578231
2.599733218 0.350185824 0.748383983
