N O H C
1.0
35.0 0.0 0.0
0.0 35.0 0.0
0.0 0.0 35.0
2 2 10 4  
Cartesian
-0.665621156 0.095054696 -0.491994491
2.149800700 2.148925153 0.603092982
-0.725300438 2.155147669 0.452713346
2.209466501 0.090161494 -0.344484538
0.354582662 0.051448166 -0.459309217
-1.183627037 -0.673599692 -0.870756096
-3.220628949 1.262541455 0.893082386
-3.209427538 0.248634016 -0.561900090
-3.143158132 2.016595633 -0.688893115
1.129695332 2.193362937 0.568791665
2.667824766 2.916886353 0.983213632
4.692758510 1.988115826 0.687655523
4.704443640 1.000921273 -0.785308796
4.628666208 0.217891406 0.782651851
-1.309749745 1.180176173 -0.025170341
-2.816719340 1.155998649 -0.110605975
2.793888264 1.064181930 0.135246428
4.300887446 1.088466310 0.220471513
