N O H C
1.0
35.0 0.0 0.0
0.0 35.0 0.0
0.0 0.0 35.0
1 1 5 2  
Cartesian
2.149800700      2.148925153      0.603092982
2.209466501      0.090161494     -0.344484538
1.129695332      2.193362937      0.568791665
2.667824766      2.916886353      0.983213632
4.692758510      1.988115826      0.687655523
4.704443640      1.000921273     -0.785308796
4.628666208      0.217891406      0.782651851
2.793888264      1.064181930      0.135246428
4.300887446      1.088466310      0.220471513
