N O H C
1.0
35.0 0.0 0.0
0.0 35.0 0.0
0.0 0.0 35.0
1 1 5 2  
Cartesian
-0.665621156      0.095054696     -0.491994491
-0.725300438      2.155147669      0.452713346
0.354582662      0.051448166     -0.459309217
-1.183627037     -0.673599692     -0.870756096
-3.220628949      1.262541455      0.893082386
-3.209427538      0.248634016     -0.561900090
-3.143158132      2.016595633     -0.688893115
-1.309749745      1.180176173     -0.025170341
-2.816719340      1.155998649     -0.110605975
