N O H C
1.0
35.0 0.0 0.0
0.0 35.0 0.0
0.0 0.0 35.0 
2 2 4 4 
Cartesian
4.196973148 1.088162180 0.182850363
2.328620031 2.405048348 0.443885829
6.315647440 1.917981990 0.311423510
2.116520071 0.165320677 0.036243426
4.590178261 0.172771951 0.011130936
5.098969748 4.282665058 0.756387898
2.609510591 4.424177336 0.809590069
1.304568201 2.474996040 0.467676090
5.118501055 2.136277798 0.364303473
4.479434984 3.415740180 0.604910624
3.132350782 3.495730335 0.634291860
2.828552517 1.154825564 0.209713606
