C O H
1.0
35.0 0.0 0.0
0.0 35.0 0.0
0.0 0.0 35.0 
2 2 4 
Cartesian
-1.113626115 1.327020095 0.275167055
-2.611424686 1.286189573 0.277361307
-0.467082641 2.349387782 0.461537462
-0.578089388 0.136920485 0.049617473
0.413320364 0.203256605 0.055487108
-3.006648718 2.276885447 0.465789827
-2.964256227 0.915258679 -0.682001232
-2.953114211 0.591798210 1.041240412
