 O  H 
 1.0000000000000000
    35.0000000000000000    0.0000000000000000    0.0000000000000000
     0.0000000000000000   35.0000000000000000    0.0000000000000000
     0.0000000000000000    0.0000000000000000   35.0000000000000000
 O   H  
   1   2
Cartesian
  0.0000000000000000  3.8584760000000000  0.0000000000000000
  0.0297038680000000  4.4126474610000006 -0.7850120700000000
  0.0136517680000000  4.4845435199999999  0.7294418190000000
