 H  C  O 
 1.0000000000000000
    35.0000000000000000    0.0000000000000000    0.0000000000000000
     0.0000000000000000   35.0000000000000000    0.0000000000000000
     0.0000000000000000    0.0000000000000000   35.0000000000000000
 H   C   O  
   2   1   3
Cartesian
  0.0297038680000000  3.9126474610000002 -0.7850120700000000
  0.0136517680000000  3.9845435199999999  0.7294418190000000
  0.0000000000000000  0.0882560000000000  0.0000000000000000
  0.0000000000000000  1.2584759999999999  0.0000000000000000
  0.0000000000000000 -1.0819639999999999  0.0000000000000000
  0.0000000000000000  3.3584760000000000  0.0000000000000000
