 O  H 
 1.0000000000000000
    35.0000000000000000    0.0000000000000000    0.0000000000000000
     0.0000000000000000   35.0000000000000000    0.0000000000000000
     0.0000000000000000    0.0000000000000000   35.0000000000000000
 O   H  
   1   2
Cartesian
  0.0000000000000000  3.1584759999999998  0.0000000000000000
  0.0297038680000000  3.7126474610000000 -0.7850120700000000
  0.0136517680000000  3.7845435199999997  0.7294418190000000
