 O  H 
 1.0000000000000000
    35.0000000000000000    0.0000000000000000    0.0000000000000000
     0.0000000000000000   35.0000000000000000    0.0000000000000000
     0.0000000000000000    0.0000000000000000   35.0000000000000000
 O   H  
   1   2
Cartesian
  0.0000000000000000  5.9584760000000001  0.0000000000000000
  0.0297038680000000  6.5126474610000002 -0.7850120700000000
  0.0136517680000000  6.5845435200000004  0.7294418190000000
