 O  H 
 1.0000000000000000
    35.0000000000000000    0.0000000000000000    0.0000000000000000
     0.0000000000000000   35.0000000000000000    0.0000000000000000
     0.0000000000000000    0.0000000000000000   35.0000000000000000
 O   H  
   1   2
Cartesian
  0.0000000000000000  4.6584760000000003  0.0000000000000000
  0.0297038680000000  5.2126474610000004 -0.7850120700000000
  0.0136517680000000  5.2845435199999997  0.7294418190000000
