 C  O 
 1.0000000000000000
    35.0000000000000000    0.0000000000000000    0.0000000000000000
     0.0000000000000000   35.0000000000000000    0.0000000000000000
     0.0000000000000000    0.0000000000000000   35.0000000000000000
 C   O  
   1   2
Cartesian
  0.0000000000000000  0.0882560000000000  0.0000000000000000
  0.0000000000000000  1.2584759999999999  0.0000000000000000
  0.0000000000000000 -1.0819639999999999  0.0000000000000000
