C H
1.0
35.0 0.0 0.0
0.0 35.0 0.0
0.0 0.0 35.0 
6 6 
Cartesian
-0.709774000 -0.990423000 1.207702000
-1.406534000 -0.965353000 0.000000000
-0.709774000 -0.990423000 -1.207702000
0.683965000 -1.040510000 -1.207865000
1.380978000 -1.065552000 0.000000000
0.683965000 -1.040510000 1.207865000
-1.249948000 -0.968628000 2.144051000
-2.486920000 -0.923706000 0.000000000
-1.249948000 -0.968628000 -2.144051000
1.224288000 -1.058075000 -2.144256000
2.461589000 -1.102982000 0.000000000
1.224288000 -1.058075000 2.144256000
