N O H C
1.0
35.0 0.0 0.0
0.0 35.0 0.0
0.0 0.0 35.0
2 2 4 4  
Cartesian
-0.714834682     -0.284904059      3.278835825
 1.556727407     -0.503998488      3.558375282
-1.754462873      1.741105536      3.256996696
 0.264143223     -2.356648992      3.198414306
-1.609723701     -0.716767550      3.094232337
 0.706231323      2.739209248      3.695278074
 2.678667588      1.221959474      3.819356479
 2.370163401     -1.096185838      3.550207643
-0.714579796      1.112905733      3.371846826
 0.604914957      1.671987078      3.599409893
 1.674788548      0.853294776      3.670929946
 0.356280470     -1.151230916      3.331993585
