N O H C
1.0
35.0 0.0 0.0
0.0 35.0 0.0
0.0 0.0 35.0
3 2 9 9  
Cartesian
 1.210755335      0.028675778      0.329711113
-0.714834682     -0.284904059      3.278835825
 1.556727407     -0.503998488      3.558375282
-1.754462873      1.741105536      3.256996696
 0.264143223     -2.356648992      3.198414306
 1.251477905     -2.029523404      0.219292947
-1.170415774     -2.296869318     -0.213383204
-2.611012747     -0.245954694     -0.338755744
-1.518814305      1.984500285     -0.011644028
 0.924694513      2.068051734      0.397547985
-1.609723701     -0.716767550      3.094232337
 0.706231323      2.739209248      3.695278074
 2.678667588      1.221959474      3.819356479
 2.370163401     -1.096185838      3.550207643
 0.611934970     -1.158449011      0.153451764
-0.751313990     -1.308649559     -0.088834071
-1.547867670     -0.169940268     -0.156466912
-0.943622374      1.070636117      0.019823098
 0.427718570      1.116108629      0.257348792
-0.714579796      1.112905733      3.371846826
 0.604914957      1.671987078      3.599409893
 1.674788548      0.853294776      3.670929946
 0.356280470     -1.151230916      3.331993585
