N O H C
1.0
35.0 0.0 0.0
0.0 35.0 0.0
0.0 0.0 35.0
2 2 14 6 
Cartesian
-0.670056563      0.005916557      0.009776912
4.158316026     -1.267453205      0.138145705
-2.660450004     -0.428479088      1.034345768
2.286371170      0.002797367      0.294921284
-1.183295956      0.395647770      3.098874220
0.349561571     -0.030321572      2.307833035
-0.794056854     -1.291605451      2.824039291
0.326675319      0.122563958      0.141592839
-2.292024256     -0.106501186     -1.240877562
-1.077801692      1.079940300     -1.748543540
-0.776628489     -0.647999190     -1.983372734
2.622146675     -3.263054713      0.482222411
1.135230013     -2.359580927      0.123804997
1.804702942     -2.329604778      1.745071414
4.534637326     -2.194698901      0.214903031
4.431361830      0.729822544     -0.230626543
5.772968760     -0.021521500      0.646600477
5.570544503     -0.320968960     -1.089945166
-0.701502936     -0.290627698      2.406884396
-1.448546246     -0.244876636      1.091815299
-1.227054574      0.089793737     -1.319967541
2.063921871     -2.353051477      0.688130414
2.831557813     -1.098639438      0.351893675
5.045554210     -0.160987232     -0.150802830
