N O H C
1.0
35.0 0.0 0.0
0.0 35.0 0.0
0.0 0.0 35.0
1 1 7 3 
Cartesian
-0.670056563      0.005916557      0.009776912
-2.660450004     -0.428479088      1.034345768
-1.183295956      0.395647770      3.098874220
0.349561571     -0.030321572      2.307833035
-0.794056854     -1.291605451      2.824039291
0.326675319      0.122563958      0.141592839
-2.292024256     -0.106501186     -1.240877562
-1.077801692      1.079940300     -1.748543540
-0.776628489     -0.647999190     -1.983372734
-0.701502936     -0.290627698      2.406884396
-1.448546246     -0.244876636      1.091815299
-1.227054574      0.089793737     -1.319967541
