N O H C
1.0
35.0 0.0 0.0
0.0 35.0 0.0
0.0 0.0 35.0
1 1 7 3 
Cartesian
4.158316026     -1.267453205      0.138145705
2.286371170      0.002797367      0.294921284
2.622146675     -3.263054713      0.482222411
1.135230013     -2.359580927      0.123804997
1.804702942     -2.329604778      1.745071414
4.534637326     -2.194698901      0.214903031
4.431361830      0.729822544     -0.230626543
5.772968760     -0.021521500      0.646600477
5.570544503     -0.320968960     -1.089945166
2.063921871     -2.353051477      0.688130414
2.831557813     -1.098639438      0.351893675
5.045554210     -0.160987232     -0.150802830
