C H
1.0
35.0 0.0 0.0
0.0 35.0 0.0
0.0 0.0 35.0
2 4  
Cartesian
0.019153799 0.666437159 3.437182554
0.019486483 -0.666250141 3.437314793
0.929627802 1.225922878 3.278067711
-0.890393699 1.228841386 3.594143058
0.930222174 -1.225332625 3.278304360
-0.889801611 -1.229074912 3.594403944
