N C H
1.0
35.0 0.0 0.0
0.0 35.0 0.0
0.0 0.0 35.0
1 7 9 
Cartesian
 1.381382191     -0.000233477      0.131463739
 0.679350788     -1.140239457      0.092079660
-0.709722319     -1.193114069      0.006664265
-1.421613574      0.000133427     -0.040816901
-0.709401197      1.193175380      0.006521983
 0.679651666      1.139956229      0.091893028
 0.019153799      0.666437159      3.437182554
 0.019486483     -0.666250141      3.437314793
 1.258719604     -2.054962232      0.125883611
-1.214087679     -2.148561633     -0.025308510
-2.500696146      0.000257571     -0.109169733
-1.213511626      2.148747839     -0.025528309
 1.259260730      2.054510898      0.125502478
 0.929627802      1.225922878      3.278067711
-0.890393699      1.228841386      3.594143058
 0.930222174     -1.225332625      3.278304360
-0.889801611     -1.229074912      3.594403944
