N C H
1.0
35.0 0.0 0.0
0.0 35.0 0.0
0.0 0.0 35.0
1 5 5  
Cartesian
1.381382191 -0.000233477 0.131463739
0.679350788 -1.140239457 0.092079660
-0.709722319 -1.193114069 0.006664265
-1.421613574 0.000133427 -0.040816901
-0.709401197 1.193175380 0.006521983
0.679651666 1.139956229 0.091893028
1.258719604 -2.054962232 0.125883611
-1.214087679 -2.148561633 -0.025308510
-2.500696146 0.000257571 -0.109169733
-1.213511626 2.148747839 -0.025528309
1.259260730 2.054510898 0.125502478
