O N C H
1.0
35.0 0.0 0.0
0.0 35.0 0.0
0.0 0.0 35.0
2 2 5 6 
Cartesian
-1.867473000      0.011209000      1.912083000
-1.941678000     -0.029188000     -2.657378000
-3.921173000     -0.000965000     -1.516366000
-1.925648000     -0.011059000     -0.363895000
-4.613683000      0.016905000     -0.333652000
-3.991739000      0.021935000      0.866334000
-2.536137000      0.007465000      0.876672000
-2.539590000     -0.014947000     -1.596236000
-4.710613000      0.041337000      2.173864000
-4.401717000     -0.003608000     -2.400492000
-0.883826000     -0.021617000     -0.378427000
-5.690922000      0.026935000     -0.422718000
-4.443928000     -0.830257000      2.769566000
-4.426706000      0.918618000      2.753026000
-5.788397000      0.050553000      2.024728000
