N H
1.0
35.0 0.0 0.0
0.0 35.0 0.0
0.0 0.0 35.0 
1 3 
Cartesian
0.180393000 -2.949123000 0.000000000
0.759549000 -3.145948000 -0.806073000
0.759549000 -3.145948000 0.806073000
0.044417000 -1.944940000 0.000000000
