N O H C
1.0
35.0 0.0 0.0
0.0 35.0 0.0
0.0 0.0 35.0 
2 1 12 4 
Cartesian
-0.791953608 -0.069640484 0.100589371
2.255356546 0.255483283 0.283183834
-2.700835214 -0.783585732 1.089596816
0.224744624 -0.050952937 2.413483550
-0.722479943 -1.487091796 2.854584636
-1.351907573 0.110816926 3.213683648
0.194111652 0.145707904 0.202924639
-2.314928013 0.528891210 -1.199709914
-0.698804216 0.387261304 -1.915366213
-1.652982322 -1.061528948 -1.545434954
2.659022871 0.795402811 1.038383924
2.673360419 0.622864532 -0.562462087
2.201371985 -1.726732116 -0.384438867
3.703058027 -1.342388980 0.462719980
2.193186812 -1.540106543 1.356772584
-0.778573337 -0.463320642 2.490387679
-1.520502592 -0.456627685 1.172325000
-1.397798343 -0.056082448 -1.211317928
2.627659385 -1.155699531 0.436936583

