N C H
1.0
35.0 0.0 0.0
0.0 35.0 0.0
0.0 0.0 35.0
1 1 5 
Cartesian
2.255356546 0.255483283 0.283183834
2.627659385 -1.155699531 0.436936583
2.659022871 0.795402811 1.038383924
2.673360419 0.622864532 -0.562462087
2.201371985 -1.726732116 -0.384438867
3.703058027 -1.342388980 0.462719980
2.193186812 -1.540106543 1.356772584
