N O H C
1.0
35.0 0.0 0.0
0.0 35.0 0.0
0.0 0.0 35.0
1 1 7 3  
Cartesian
-0.791953608     -0.069640484      0.100589371
-2.700835214     -0.783585732      1.089596816
 0.224744624     -0.050952937      2.413483550
-0.722479943     -1.487091796      2.854584636
-1.351907573      0.110816926      3.213683648
 0.194111652      0.145707904      0.202924639
-2.314928013      0.528891210     -1.199709914
-0.698804216      0.387261304     -1.915366213
-1.652982322     -1.061528948     -1.545434954
-0.778573337     -0.463320642      2.490387679
-1.520502592     -0.456627685      1.172325000
-1.397798343     -0.056082448     -1.211317928
