N O H C
1.0
35.0 0.0 0.0
0.0 35.0 0.0
0.0 0.0 35.0
3 3 9 6 
Cartesian
-0.670580510      0.003888780     -0.314281473
4.200652681      1.117510509     -0.119473427
2.197443699      2.241714894      0.033909684
-0.571276673      2.242015733      0.025616787
6.219840720      2.164733124      0.015823493
2.231144934     -0.026670565     -0.270157843
0.343846945     -0.090560105     -0.308326667
-1.244213734     -0.806323699     -0.446682710
-3.077975339      1.646605106      0.804501592
-3.202115034      0.302865489     -0.346211116
-3.049987473      1.975490493     -0.918597367
4.690682128      0.241553329     -0.237411896
4.753449508      4.408864794      0.317187330
2.262121755      4.290356788      0.306152347
1.164653221      2.232653830      0.033072366
-1.232727003      1.211638964     -0.141624061
-2.738244955      1.266757664     -0.155886572
5.004278693      2.260355448      0.031008269
4.231686518      3.475671931      0.194152207
2.882525806      3.413996402      0.188475450
2.828333664      1.037245396     -0.128350352
