N O H C
1.0
35.0 0.0 0.0
0.0 35.0 0.0
0.0 0.0 35.0
2 2 4 4 
Cartesian
4.200652681      1.117510509     -0.119473427
2.197443699      2.241714894      0.033909684
6.219840720      2.164733124      0.015823493
2.231144934     -0.026670565     -0.270157843
4.690682128      0.241553329     -0.237411896
4.753449508      4.408864794      0.317187330
2.262121755      4.290356788      0.306152347
1.164653221      2.232653830      0.033072366
5.004278693      2.260355448      0.031008269
4.231686518      3.475671931      0.194152207
2.882525806      3.413996402      0.188475450
2.828333664      1.037245396     -0.128350352
