N O H C
1.0
35.0 0.0 0.0
0.0 35.0 0.0
0.0 0.0 35.0
1 1 5 2 
Cartesian
-0.670580510      0.003888780     -0.314281473
-0.571276673      2.242015733      0.025616787
0.343846945     -0.090560105     -0.308326667
-1.244213734     -0.806323699     -0.446682710
-3.077975339      1.646605106      0.804501592
-3.202115034      0.302865489     -0.346211116
-3.049987473      1.975490493     -0.918597367
-1.232727003      1.211638964     -0.141624061
-2.738244955      1.266757664     -0.155886572
