N O H C
1.0
35.0 0.0 0.0
0.0 35.0 0.0
0.0 0.0 35.0
2 2 4 4 
Cartesian
-0.275804152      0.674183275      3.194265248
-0.629712470     -1.562230596      3.600513171
 1.807252849      1.595620061      3.181444522
-2.401949191     -0.186606293      3.158986363
-0.649111545      1.575944705      2.931372277
 2.652294738     -0.885097279      3.778509925
 1.021460938     -2.755683125      4.007129675
-1.278460301     -2.324789539      3.699382342
 1.116342530      0.601196369      3.326278587
 1.595242644     -0.732881340      3.644388789
 0.715533417     -1.747262516      3.770605314
-1.204160779     -0.337429568      3.301098555
