N O H C
1.0
35.0 0.0 0.0
0.0 35.0 0.0
0.0 0.0 35.0
2 2 10 10  
Cartesian
-0.275804152 0.674183275 3.194265248
-0.629712470 -1.562230596 3.600513171
1.807252849 1.595620061 3.181444522
-2.401949191 -0.186606293 3.158986363
1.521013168 2.063125196 -0.082471448
2.363657528 -0.242261131 0.207674197
0.773753376 -2.137426768 0.324121091
-1.665209000 -1.719983422 0.160427446
-2.507511245 0.585501124 -0.124150163
-0.914221904 2.477422201 -0.267855164
-0.649111545 1.575944705 2.931372277
2.652294738 -0.885097279 3.778509925
1.021460938 -2.755683125 4.007129675
-1.278460301 -2.324789539 3.699382342
0.825769105 1.236524837 -0.040250437
1.300159924 -0.062940879 0.127256013
0.403523117 -1.128552182 0.198244857
-0.967809494 -0.895190489 0.103139941
-1.443508379 0.404483279 -0.062441302
-0.545755493 1.468768748 -0.136247408
1.116342530 0.601196369 3.326278587
1.595242644 -0.732881340 3.644388789
0.715533417 -1.747262516 3.770605314
-1.204160779 -0.337429568 3.301098555
