C H
1.0
35.0 0.0 0.0
0.0 35.0 0.0
0.0 0.0 35.0 
6 6 
Cartesian
0.825769105 1.236524837 -0.040250437
1.300159924 -0.062940879 0.127256013
0.403523117 -1.128552182 0.198244857
-0.967809494 -0.895190489 0.103139941
-1.443508379 0.404483279 -0.062441302
-0.545755493 1.468768748 -0.136247408
1.521013168 2.063125196 -0.082471448
2.363657528 -0.242261131 0.207674197
0.773753376 -2.137426768 0.324121091
-1.665209000 -1.719983422 0.160427446
-2.507511245 0.585501124 -0.124150163
-0.914221904 2.477422201 -0.267855164
