C H
1.0
35.0 0.0 0.0
0.0 35.0 0.0
0.0 0.0 35.0 
6 6 
Cartesian
2.511900000      1.625015000      0.000000000
2.713009000      0.957854000     -1.208292000
3.117782000     -0.376744000     -1.208365000
3.321385000     -1.043731000      0.000000000
3.117782000     -0.376744000      1.208365000
2.713009000      0.957854000      1.208292000
2.202404000      2.661136000      0.000000000
2.551176000      1.473691000     -2.144590000
3.270300000     -0.895141000     -2.144838000
3.636814000     -2.078152000      0.000000000
3.270300000     -0.895141000      2.144838000
2.551176000      1.473691000      2.144590000
