N C H
1.0
35.0 0.0 0.0
0.0 35.0 0.0
0.0 0.0 35.0 
1 14 13 
Cartesian
-0.144241000 -0.768693000 0.000000000
2.511900000 1.625015000 0.000000000
2.713009000 0.957854000 -1.208292000
3.117782000 -0.376744000 -1.208365000
3.321385000 -1.043731000 0.000000000
3.117782000 -0.376744000 1.208365000
2.713009000 0.957854000 1.208292000
-0.516112000 -2.089322000 0.000000000
-1.889876000 -2.181449000 0.000000000
-2.393232000 -0.847083000 0.000000000
-1.264065000 0.019589000 0.000000000
-1.389600000 1.411767000 0.000000000
-2.672650000 1.936645000 0.000000000
-3.805451000 1.097479000 0.000000000
-3.679817000 -0.281721000 0.000000000
2.202404000 2.661136000 0.000000000
2.551176000 1.473691000 -2.144590000
3.270300000 -0.895141000 -2.144838000
3.636814000 -2.078152000 0.000000000
3.270300000 -0.895141000 2.144838000
2.551176000 1.473691000 2.144590000
0.806524000 -0.435887000 0.000000000
0.231002000 -2.865317000 0.000000000
-2.458576000 -3.095605000 0.000000000
-0.518873000 2.053952000 0.000000000
-2.807757000 3.009786000 0.000000000
-4.790599000 1.543937000 0.000000000
-4.558019000 -0.914292000 0.000000000
