N C H
1.0
35.0 0.0 0.0
0.0 35.0 0.0
0.0 0.0 35.0 
1 8 7 
Cartesian
-0.144241000     -0.768693000      0.000000000
-0.516112000     -2.089322000      0.000000000
-1.889876000     -2.181449000      0.000000000
-2.393232000     -0.847083000      0.000000000
-1.264065000      0.019589000      0.000000000
-1.389600000      1.411767000      0.000000000
-2.672650000      1.936645000      0.000000000
-3.805451000      1.097479000      0.000000000
-3.679817000     -0.281721000      0.000000000
 0.806524000     -0.435887000      0.000000000
 0.231002000     -2.865317000      0.000000000
-2.458576000     -3.095605000      0.000000000
-0.518873000      2.053952000      0.000000000
-2.807757000      3.009786000      0.000000000
-4.790599000      1.543937000      0.000000000
-4.558019000     -0.914292000      0.000000000
