 O  C 
 1.0000000000000000
    35.0000000000000000    0.0000000000000000    0.0000000000000000
     0.0000000000000000   35.0000000000000000    0.0000000000000000
     0.0000000000000000    0.0000000000000000   35.0000000000000000
   1   1
Cartesian
  0.0080132300000000  6.6384933159999999 -0.0010802970000000
  0.0295890800000000  7.7772366960000001 -0.0033379370000000
