 H  C  O 
 1.0000000000000000
    35.0000000000000000    0.0000000000000000    0.0000000000000000
     0.0000000000000000   35.0000000000000000    0.0000000000000000
     0.0000000000000000    0.0000000000000000   35.0000000000000000
   2   1   2
Cartesian
  0.0274899200000000  1.7410864300000000 -0.9315171100000000
  0.0119145900000000  2.9385010100000000 -0.0014886100000000
  0.0295890800000000  7.6772366959999996 -0.0033379370000000
  0.0000000000000000  1.9772060000000000  0.0000000000000000
  0.0080132300000000  6.5384933160000003 -0.0010802970000000
