 O  C 
 1.0000000000000000
    35.0000000000000000    0.0000000000000000    0.0000000000000000
     0.0000000000000000   35.0000000000000000    0.0000000000000000
     0.0000000000000000    0.0000000000000000   35.0000000000000000
   1   1
Cartesian
  0.0080132300000000  4.4384933160000006 -0.0010802970000000
  0.0295890800000000  5.5772366959999999 -0.0033379370000000
