C H
1.0
35.0 0.0 0.0
0.0 35.0 0.0
0.0 0.0 35.0 
6 6 
Cartesian
0.759749176 1.031275058 0.373772394
1.266617787 -0.267362341 0.421273076
0.395320544 -1.355991164 0.424905109
-0.982205637 -1.146654408 0.381270236
-1.489346115 0.151149791 0.337572337
-0.618775155 1.240331207 0.333883729
1.435016257 1.875664269 0.374704616
2.334915967 -0.429180190 0.459432338
0.788661934 -2.362492586 0.463035490
-1.657656316 -1.991140192 0.385121003
-2.557947039 0.313750489 0.307719001
-1.011761615 2.247106897 0.304369215
