C O H
1.0
35.0 0.0 0.0
0.0 35.0 0.0
0.0 0.0 35.0
1 1 4 
Cartesian
-0.849839249     -0.751823406      3.976744526
 0.046311350      0.305790667      3.693689487
 0.132411565      0.355663758      2.736495942
-0.945559943     -0.808557990      5.057680662
-1.841988837     -0.580125666      3.552954322
-0.483378931     -1.714864475      3.613833010
