C O H
1.0
35.0 0.0 0.0
0.0 35.0 0.0
0.0 0.0 35.0
2 2 4  
Cartesian
 0.418220607     -0.270554399      4.031747038
-0.603663621      0.773377118      3.711065858
 1.613713281     -0.106603653      4.108262815
-0.161281065     -1.481959360      4.231185395
 0.573169793     -2.083067854      4.424223510
-0.125369201      1.744323470      3.664243087
-1.056463723      0.540180930      2.748357811
-1.388514635      0.767840618      4.463565338
