C O H
1.0
35.0 0.0 0.0
0.0 35.0 0.0
0.0 0.0 35.0
8 2 10  
Cartesian
 0.606784959      1.330421848      0.316434508
 1.118084657      0.087248862      0.685116522
 0.292902289     -1.036087368      0.669107267
-1.042831736     -0.916711123      0.288189637
-1.553588379      0.327348987     -0.079943171
-0.728041637      1.450843156     -0.066848338
 0.418220607     -0.270554399      4.031747038
-0.603663621      0.773377118      3.711065858
 1.613713281     -0.106603653      4.108262815
-0.161281065     -1.481959360      4.231185395
 1.246498457      2.202264343      0.330352311
 2.150057527     -0.003886783      0.993758239
 0.688496859     -2.000961486      0.955377972
-1.682709560     -1.788488247      0.279349028
-2.589234948      0.420289081     -0.377346195
-1.123623792      2.415658650     -0.353861434
 0.573169793     -2.083067854      4.424223510
-0.125369201      1.744323470      3.664243087
-1.056463723      0.540180930      2.748357811
-1.388514635      0.767840618      4.463565338



















