C H
1.0
35.0 0.0 0.0
0.0 35.0 0.0
0.0 0.0 35.0 
6 6 
Cartesian
0.606784959 1.330421848 0.316434508
1.118084657 0.087248862 0.685116522
0.292902289 -1.036087368 0.669107267
-1.042831736 -0.916711123 0.288189637
-1.553588379 0.327348987 -0.079943171
-0.728041637 1.450843156 -0.066848338
1.246498457 2.202264343 0.330352311
2.150057527 -0.003886783 0.993758239
0.688496859 -2.000961486 0.955377972
-1.682709560 -1.788488247 0.279349028
-2.589234948 0.420289081 -0.377346195
-1.123623792 2.415658650 -0.353861434
