C H
1.0
35.0 0.0 0.0
0.0 35.0 0.0
0.0 0.0 35.0 
6 6 
Cartesian
0.712645325 1.120995701 0.060540783
1.258235731 -0.159251901 0.124233518
0.426884963 -1.274526662 0.042650428
-0.949577845 -1.110074058 -0.100313595
-1.495525640 0.171050561 -0.161546018
-0.663827601 1.286642887 -0.083401433
1.357841649 1.986399167 0.127737169
2.324954277 -0.287099878 0.246743035
0.850444649 -2.268432680 0.094749952
-1.594455696 -1.976273703 -0.163713480
-2.563782791 0.299221149 -0.273703115
-1.086900697 2.281000204 -0.132886135
