C H
1.0
35.0 0.0 0.0
0.0 35.0 0.0
0.0 0.0 35.0 
6 6 
Cartesian
1.949488213 1.110116294 3.600833554
2.495441339 -0.171034805 3.662353287
1.663791859 -1.286634905 3.583702858
0.287390298 -1.120999876 3.438986110
-0.258169573 0.159232871 3.375020282
0.573107377 1.274513633 3.457091226
2.594333337 1.976300037 3.664584272
3.563648223 -0.299181855 3.775097506
2.086873566 -2.280987340 3.633356521
-0.357712298 -1.986410120 3.371353478
-1.324797607 0.287062084 3.251841521
0.149582495 2.268418667 3.404722296
