N C H
1.0
35.0 0.0 0.0
0.0 35.0 0.0
0.0 0.0 35.0
1 5 5   
Cartesian
2.293457077 0.015272971 -0.001638078
2.989825466 -0.009162360 -1.146357682
4.379462529 -0.058905224 -1.195042932
5.089835757 -0.084617841 0.000570095
4.377588305 -0.059596734 1.195109948
2.988034662 -0.009847047 1.144155863
2.405346869 0.014061175 -2.057333120
4.886814877 -0.076197256 -2.148825656
6.170171760 -0.122382594 0.001419390
4.883387039 -0.077421061 2.149595640
2.402028876 0.012827380 2.054274549
