N O C H
1.0
35.0 0.0 0.0
0.0 35.0 0.0
0.0 0.0 35.0
1 1 9 6  
Cartesian
2.293457077      0.015272971     -0.001638078
-0.627651774      0.087467269      0.001471285
0.343602034      0.122303329     -0.000600445
-2.063392094     -1.342043324      0.005008980
-0.614883686     -1.806375837     -0.885383954
-0.608640326     -1.808236824      0.884172732
2.405346869      0.014061175     -2.057333120
4.886814877     -0.076197256     -2.148825656
6.170171760     -0.122382594      0.001419390
4.883387039     -0.077421061      2.149595640
2.402028876      0.012827380      2.054274549
-0.977931231     -1.278556006      0.001238407
2.989825466     -0.009162360     -1.146357682
4.379462529     -0.058905224     -1.195042932
5.089835757     -0.084617841      0.000570095
4.377588305     -0.059596734      1.195109948
2.988034662     -0.009847047      1.144155863
