C O H
1.0
35.0 0.0 0.0
0.0 35.0 0.0
0.0 0.0 35.0
1 1 4  
Cartesian
-0.977931231 -1.278556006 0.001238407
-0.627651774 0.087467269 0.001471285
0.343602034 0.122303329 -0.000600445
-2.063392094 -1.342043324 0.005008980
-0.614883686 -1.806375837 -0.885383954
-0.608640326 -1.808236824 0.884172732
