O H
1.0
35.0 0.0 0.0
0.0 35.0 0.0
0.0 0.0 35.0 
1 2 
Cartesian
-0.392018453 -0.384718737 0.076071325
-0.911460851 0.413812040 0.177648774
0.524903820 -0.068484694 0.090511364
