N C H
1.0
35.0 0.0 0.0
0.0 35.0 0.0
0.0 0.0 35.0
1 5 5 
Cartesian
-0.083032490      0.000714589      1.055199987
-0.202853764     -1.141725850      0.364933690
-0.446781438     -1.191763671     -1.004512261
-0.574682087      0.003439534     -1.704309480
-0.453456753      1.197242545     -1.000916473
-0.209311108      1.144507590      0.368367296
-0.098485626     -2.055097952      0.937432624
-0.533649208     -2.145855109     -1.504171553
-0.763683910      0.004480103     -2.768726700
-0.545630798      2.152272643     -1.497795085
-0.110167072      2.056697259      0.943573961











