C H
1.0
35.0 0.0 0.0
0.0 35.0 0.0
0.0 0.0 35.0 
2 2 
Cartesian
0.474062296 -0.006109779 5.557910955
0.341992533 -0.006659514 4.351663655
0.589472340 -0.005535587 6.612924777
0.223844417 -0.006397086 3.287158181
