C O H
1.0
35.0 0.0 0.0
0.0 35.0 0.0
0.0 0.0 35.0
2 2 4 
Cartesian
-0.118370717      0.531398217      4.380176894
 0.091583583      0.134411131      5.811582685
-0.586560311      1.580844840      4.000916509
 0.284841861     -0.446165049      3.540891634
 0.116137040     -0.120251464      2.639486380
-0.218382568      0.943747714      6.461571572
-0.484497145     -0.762212843      6.028533799
 1.140081004     -0.101720955      5.976601269
