C H
1.0
35.0 0.0 0.0
0.0 35.0 0.0
0.0 0.0 35.0 
5 10 
Cartesian
0.956880185 -0.891845634 1.141950005
0.990949429 0.658508299 1.145503845
-0.479451941 1.102318793 1.103879102
-1.182106501 -0.052796555 0.393345754
-0.530659579 -1.274889539 1.039309594
1.504565968 -1.278357625 0.283420189
1.421384473 -1.314777934 2.031025457
1.510594456 1.023096462 0.259947883
1.516258229 1.059818131 2.010537025
-0.616268611 2.064877218 0.613567367
-0.874742231 1.189071444 2.118069595
-0.948882159 -0.026830303 -0.673804592
-2.265664523 -0.033564738 0.501274026
-0.690390612 -2.197020928 0.482992214
-0.950849387 -1.415411973 2.036747824
