C H
1.0
35.0 0.0 0.0
0.0 35.0 0.0
0.0 0.0 35.0 
5 10 
Cartesian
-1.131779961 -0.383506064 5.065335415
0.181826490 -1.179050977 5.017574217
1.311141712 -0.116345151 5.018170311
0.600968343 1.245323598 5.126037144
-0.741084118 0.910851158 5.775849004
-1.464914459 -0.146807449 4.052751052
-1.936568361 -0.926604527 5.558321918
0.231771431 -1.836793667 4.151440395
0.262114110 -1.810408608 5.901959509
1.932406667 -0.177024000 4.126296692
1.968551204 -0.266228193 5.873575481
0.421105167 1.653815383 4.130038020
1.181352300 1.979727099 5.682010412
-1.480752683 1.703362927 5.670967703
-0.601044189 0.719211109 6.842397963
