N O H C
1.0
35.0 0.0 0.0
0.0 35.0 0.0
0.0 0.0 35.0
1 1 11 8  
Cartesian
-0.225754628     -0.669005061      4.174080944
 0.324781970      1.529427720      4.238009006
 1.513825504      0.902679557      1.712765824
 2.392883841     -0.933344720      0.281963052
 0.856083995     -2.178907525     -1.206824282
-1.545405726     -1.585700140     -1.282416138
-2.411571021      0.253467233      0.130778851
-0.866110898      1.490339889      1.638036962
-0.200554316     -0.676020391      3.167444337
-0.381531113     -1.524497378      4.669782655
 1.132851122      0.475321929      6.668739555
-0.320766590     -0.535533350      6.714691433
-0.448327345      1.234955956      6.740436271
 0.855560741      0.358532444      1.049754262
 1.342897129     -0.675378664      0.251157396
 0.477806611     -1.376701096     -0.587815766
-0.874829828     -1.042556145     -0.630451783
-1.362397293     -0.007013909      0.165846446
-0.498444041      0.693156951      1.006991986
 0.078292621      0.486001476      4.825248289
 0.101137321      0.391109646      6.333665761
