N O H C
1.0
35.0 0.0 0.0
0.0 35.0 0.0
0.0 0.0 35.0
1 1 5 2  
Cartesian
-0.225754628     -0.669005061      4.174080944
 0.324781970      1.529427720      4.238009006
-0.200554316     -0.676020391      3.167444337
-0.381531113     -1.524497378      4.669782655
 1.132851122      0.475321929      6.668739555
-0.320766590     -0.535533350      6.714691433
-0.448327345      1.234955956      6.740436271
 0.078292621      0.486001476      4.825248289
 0.101137321      0.391109646      6.333665761
