C H
1.0
35.0 0.0 0.0
0.0 35.0 0.0
0.0 0.0 35.0 
6 6 
Cartesian
 0.855560741      0.358532444      1.049754262
 1.342897129     -0.675378664      0.251157396
 0.477806611     -1.376701096     -0.587815766
-0.874829828     -1.042556145     -0.630451783
-1.362397293     -0.007013909      0.165846446
-0.498444041      0.693156951      1.006991986
 1.513825504      0.902679557      1.712765824
 2.392883841     -0.933344720      0.281963052
 0.856083995     -2.178907525     -1.206824282
-1.545405726     -1.585700140     -1.282416138
-2.411571021      0.253467233      0.130778851
-0.866110898      1.490339889      1.638036962
