C H
1.0
35.0 0.0 0.0
0.0 35.0 0.0
0.0 0.0 35.0
5 12  
Cartesian
 0.382522206     -0.070606972      0.766895817
-1.040639472      0.396811255      1.060935933
 0.590847472     -1.466818137      1.347977909
 1.378269048      0.898435362      1.399149440
 0.601960941     -0.111034194     -0.743096590
-1.771574596     -0.281500248      0.618330233
-1.224717770      0.435735085      2.135518899
-1.214066031      1.393724437      0.653090647
 1.602913797     -1.822949997      1.150102854
 0.438968582     -1.466745983      2.428286685
-0.109919056     -2.178684250      0.909313901
 2.404393972      0.585440740      1.200733652
 1.243780924      0.945974298      2.480709914
 1.248373180      1.905022619      0.998950707
 0.459211824      0.877039098     -1.182898192
 1.613693987     -0.443459451     -0.979672098
-0.099530783     -0.797549823     -1.219220690

