C H
1.0
35.0 0.0 0.0
0.0 35.0 0.0
0.0 0.0 35.0 
10 24 
Cartesian
0.382522206 -0.070606972 0.766895817
-1.040639472 0.396811255 1.060935933
0.590847472 -1.466818137 1.347977909
1.378269048 0.898435362 1.399149440
0.601960941 -0.111034194 -0.743096590
-0.381848707 0.070573454 6.013301351
1.040963746 -0.398392546 5.719901810
-0.588245517 1.467134980 5.432470876
-0.602143198 0.110749668 7.523154979
-1.378311425 -0.897204206 5.380154955
-1.771574596 -0.281500248 0.618330233
-1.224717770 0.435735085 2.135518899
-1.214066031 1.393724437 0.653090647
1.602913797 -1.822949997 1.150102854
0.438968582 -1.466745983 2.428286685
-0.109919056 -2.178684250 0.909313901
2.404393972 0.585440740 1.200733652
1.243780924 0.945974298 2.480709914
1.248373180 1.905022619 0.998950707
0.459211824 0.877039098 -1.182898192
1.613693987 -0.443459451 -0.979672098
-0.099530783 -0.797549823 -1.219220690
1.225402948 -0.437721697 4.645381344
1.772397895 0.279280282 6.162637385
1.213227413 -1.395398588 6.128022382
-1.600208612 1.824120427 5.629318402
0.112673081 2.178206453 5.872192644
-0.435136301 1.467331595 4.352328521
-1.613359353 0.445026654 7.759228167
0.100369257 0.795698700 7.999993199
-0.461580105 -0.877770671 7.962606717
-1.249385416 -1.904179587 5.779733927
-2.404200522 -0.583431350 5.578542808
-1.243607059 -0.944178600 4.298578293
