N C H
1.0
35.0 0.0 0.0
0.0 35.0 0.0
0.0 0.0 35.0 
1 1 1 
Cartesian
-0.003412000      3.535393000      0.000000000
 0.075196000      2.370704000      0.000000000
 0.147629000      1.305285000      0.000000000
