C H
1.0
35.0 0.0 0.0
0.0 35.0 0.0
0.0 0.0 35.0 
2 2 
Cartesian
-0.606189355 0.055874063 0.589004905
0.605848727 0.055540867 0.589266243
-1.668036669 0.055776239 0.589011619
1.667678172 0.054863283 0.589727942
