C H
1.0
35.0 0.0 0.0
0.0 35.0 0.0
0.0 0.0 35.0 
6 6 
Cartesian
-0.021074000 1.531861000 -1.363935000
-1.274679000 0.974103000 -1.607410000
-1.378305000 -0.225698000 -2.308415000
-0.228943000 -0.866405000 -2.768794000
1.024788000 -0.303517000 -2.531241000
1.129000000 0.896679000 -1.829983000
0.060074000 2.456563000 -0.809396000
-2.165100000 1.465452000 -1.240568000
-2.350973000 -0.661612000 -2.492670000
-0.310342000 -1.795576000 -3.317270000
1.916585000 -0.794084000 -2.899394000
2.100035000 1.332676000 -1.640042000
