O N C H
1.0
35.0 0.0 0.0
0.0 35.0 0.0
0.0 0.0 35.0
2 2 5 6 
Cartesian
-2.002928000     -1.839696000     -0.019945000
-0.039788000      0.722701000     -3.253108000
 1.275461000     -0.647899000     -1.977910000
-0.995692000     -0.638387000     -1.672042000
 1.413053000     -1.553685000     -0.955067000
 0.357598000     -2.023950000     -0.253057000
 0.482129000     -3.017949000      0.852122000
-0.968471000     -1.529811000     -0.593979000
 0.068470000     -0.119176000     -2.376376000
 2.425877000     -1.867078000     -0.746878000
 0.175770000     -2.575607000      1.798628000
-0.160169000     -3.877041000      0.663950000
 1.511244000     -3.357277000      0.951366000
-1.901406000     -0.250172000     -1.898576000
 2.085329000     -0.276018000     -2.445458000
