N C H
1.0
35.0 0.0 0.0
0.0 35.0 0.0
0.0 0.0 35.0
5 5 5 
Cartesian
 0.279301000      2.406839000     -0.605752000
-1.597712000      1.717988000      0.428754000
-1.418709000     -0.167777000      2.810144000
 0.885763000     -0.070076000      2.491949000
 1.940978000      1.224202000      0.740220000
-1.084857000      2.445746000     -0.551161000
-0.489725000      1.171436000      1.030191000
-0.346137000      0.291471000      2.117234000
 1.935235000      0.407288000      1.796802000
 0.695219000      1.577986000      0.406398000
-1.659440000      3.023029000     -1.256090000
-1.238875000     -0.959480000      3.404758000
-2.291873000     -0.178822000      2.307362000
 2.906033000      0.078841000      2.145818000
 0.861007000      2.829804000     -1.310450000
