C H
1.0
35.0 0.0 0.0
0.0 35.0 0.0
0.0 0.0 35.0
1 4  
Cartesian
 0.000000000      0.000000000      3.082619000
 0.586878000      0.838174000      3.446377000
-1.019319000      0.089164000      3.446377000
 0.000000000      0.000000000      1.996670000
 0.432441000     -0.927338000      3.446377000
