C O H
1.0
35.0 0.0 0.0
0.0 35.0 0.0
0.0 0.0 35.0
4 2 6 
Cartesian
-0.610562566      0.227503096     -0.170602070
-1.386275728     -0.525325504      0.379973527
 2.861524045     -0.653464749      0.474780402
 4.237159198     -1.134914579      0.824931310
 2.607344987      0.302637498     -0.224057347
 1.913619426     -1.427804976      1.042467007
 0.107385058      0.861436027     -0.634209239
-2.080703238     -1.174067393      0.854379369
 1.052620038     -1.060505989      0.774695865
 4.975545011     -0.497364491      0.354080986
 4.363369714     -1.123059853      1.904966634
 4.359436341     -2.162759125      0.491696980
