C H
1.0
35.0 0.0 0.0
0.0 35.0 0.0
0.0 0.0 35.0 
2 2 
Cartesian
-0.610562566      0.227503096     -0.170602070
-1.386275728     -0.525325504      0.379973527
 0.107385058      0.861436027     -0.634209239
-2.080703238     -1.174067393      0.854379369
