 C  O 
 1.0000000000000000
    35.0000000000000000    0.0000000000000000    0.0000000000000000
     0.0000000000000000   35.0000000000000000    0.0000000000000000
     0.0000000000000000    0.0000000000000000   35.0000000000000000
   1   2
Cartesian
  0.0000000000000000  7.3974259999999994  0.0000000000000000
  0.0000000000000000  6.2272059999999998  0.0000000000000000
  0.0000000000000000  8.5676459999999999  0.0000000000000000
