 C  O 
 1.0000000000000000
    35.0000000000000000    0.0000000000000000    0.0000000000000000
     0.0000000000000000   35.0000000000000000    0.0000000000000000
     0.0000000000000000    0.0000000000000000   35.0000000000000000
   1   2
Cartesian
  0.0000000000000000  5.7974259999999997  0.0000000000000000
  0.0000000000000000  4.6272060000000002  0.0000000000000000
  0.0000000000000000  6.9676460000000002  0.0000000000000000
