 C  O 
 1.0000000000000000
    35.0000000000000000    0.0000000000000000    0.0000000000000000
     0.0000000000000000   35.0000000000000000    0.0000000000000000
     0.0000000000000000    0.0000000000000000   35.0000000000000000
   1   2
Cartesian
  0.0000000000000000  5.1974260000000001  0.0000000000000000
  0.0000000000000000  4.0272059999999996  0.0000000000000000
  0.0000000000000000  6.3676459999999997  0.0000000000000000
