 C  O 
 1.0000000000000000
    35.0000000000000000    0.0000000000000000    0.0000000000000000
     0.0000000000000000   35.0000000000000000    0.0000000000000000
     0.0000000000000000    0.0000000000000000   35.0000000000000000
   1   2
Cartesian
  0.0000000000000000  7.2974259999999997  0.0000000000000000
  0.0000000000000000  6.1272060000000002  0.0000000000000000
  0.0000000000000000  8.4676460000000002  0.0000000000000000
