 C  O 
 1.0000000000000000
    35.0000000000000000    0.0000000000000000    0.0000000000000000
     0.0000000000000000   35.0000000000000000    0.0000000000000000
     0.0000000000000000    0.0000000000000000   35.0000000000000000
   1   2
Cartesian
  0.0000000000000000  6.4974259999999999  0.0000000000000000
  0.0000000000000000  5.3272060000000003  0.0000000000000000
  0.0000000000000000  7.6676459999999995  0.0000000000000000
