 C  O 
 1.0000000000000000
    35.0000000000000000    0.0000000000000000    0.0000000000000000
     0.0000000000000000   35.0000000000000000    0.0000000000000000
     0.0000000000000000    0.0000000000000000   35.0000000000000000
   1   2
Cartesian
  0.0000000000000000  3.3974259999999998  0.0000000000000000
  0.0000000000000000  2.2272059999999998  0.0000000000000000
  0.0000000000000000  4.5676459999999999  0.0000000000000000
