 C  O 
 1.0000000000000000
    35.0000000000000000    0.0000000000000000    0.0000000000000000
     0.0000000000000000   35.0000000000000000    0.0000000000000000
     0.0000000000000000    0.0000000000000000   35.0000000000000000
   1   2
Cartesian
  0.0000000000000000  7.0974260000000005  0.0000000000000000
  0.0000000000000000  5.9272060000000000  0.0000000000000000
  0.0000000000000000  8.2676459999999992  0.0000000000000000
