 C  O 
 1.0000000000000000
    35.0000000000000000    0.0000000000000000    0.0000000000000000
     0.0000000000000000   35.0000000000000000    0.0000000000000000
     0.0000000000000000    0.0000000000000000   35.0000000000000000
   2   4
Cartesian
  0.0000000000000000  0.0569860000000000  0.0000000000000000
  0.0000000000000000  7.1974260000000001  0.0000000000000000
  0.0000000000000000  1.2272060000000000  0.0000000000000000
  0.0000000000000000 -1.1132340000000001  0.0000000000000000
  0.0000000000000000  6.0272059999999996  0.0000000000000000
  0.0000000000000000  8.3676460000000006  0.0000000000000000
