 C  O 
 1.0000000000000000
    35.0000000000000000    0.0000000000000000    0.0000000000000000
     0.0000000000000000   35.0000000000000000    0.0000000000000000
     0.0000000000000000    0.0000000000000000   35.0000000000000000
   1   2
Cartesian
  0.0000000000000000  4.2974259999999997  0.0000000000000000
  0.0000000000000000  3.1272059999999997  0.0000000000000000
  0.0000000000000000  5.4676460000000002  0.0000000000000000
