 C  O 
 1.0000000000000000
    35.0000000000000000    0.0000000000000000    0.0000000000000000
     0.0000000000000000   35.0000000000000000    0.0000000000000000
     0.0000000000000000    0.0000000000000000   35.0000000000000000
   1   2
Cartesian
  0.0000000000000000  3.4974259999999999  0.0000000000000000
  0.0000000000000000  2.3272059999999999  0.0000000000000000
  0.0000000000000000  4.6676459999999995  0.0000000000000000
