 C  O 
 1.0000000000000000
    35.0000000000000000    0.0000000000000000    0.0000000000000000
     0.0000000000000000   35.0000000000000000    0.0000000000000000
     0.0000000000000000    0.0000000000000000   35.0000000000000000
   1   2
Cartesian
  0.0000000000000000  6.5974260000000005  0.0000000000000000
  0.0000000000000000  5.4272060000000000  0.0000000000000000
  0.0000000000000000  7.7676460000000001  0.0000000000000000
