 C  O 
 1.0000000000000000
    35.0000000000000000    0.0000000000000000    0.0000000000000000
     0.0000000000000000   35.0000000000000000    0.0000000000000000
     0.0000000000000000    0.0000000000000000   35.0000000000000000
   2   4
Cartesian
  0.0000000000000000  0.0569860000000000  0.0000000000000000
  0.0000000000000000  6.5974260000000005  0.0000000000000000
  0.0000000000000000  1.2272060000000000  0.0000000000000000
  0.0000000000000000 -1.1132340000000001  0.0000000000000000
  0.0000000000000000  5.4272060000000000  0.0000000000000000
  0.0000000000000000  7.7676460000000001  0.0000000000000000
