N O H C
1.0
35.0 0.0 0.0
0.0 35.0 0.0
0.0 0.0 35.0
2 2 4 4  
Cartesian
 0.626081282     -0.850912653      0.805915691
 2.134129793      0.886601604      0.819081770
-1.530771620     -0.588403128      0.123592574
 2.743806306     -1.163923537      1.628587299
 0.409189894     -1.811500558      1.034401423
-0.809743523      1.951810391     -0.392839648
 1.501850224      2.733870641      0.109832837
 3.055335935      1.223901374      1.043427784
-0.432456194     -0.087335807      0.294663759
-0.066874618      1.291275215      0.019637388
 1.183542077      1.717935008      0.290533211
 1.902783188     -0.443178440      1.128311754
