 O  H 
 1.0000000000000000
    35.0000000000000000    0.0000000000000000    0.0000000000000000
     0.0000000000000000   35.0000000000000000    0.0000000000000000
     0.0000000000000000    0.0000000000000000   35.0000000000000000
 O   H  
   1   2
Cartesian
  0.0000000000000000  4.8272060000000003  0.0000000000000000
  0.0297038680000000  5.3813774609999996 -0.7850120700000000
  0.0136517680000000  5.4532735199999998  0.7294418190000000
