 O  H 
 1.0000000000000000
    35.0000000000000000    0.0000000000000000    0.0000000000000000
     0.0000000000000000   35.0000000000000000    0.0000000000000000
     0.0000000000000000    0.0000000000000000   35.0000000000000000
 O   H  
   1   2
Cartesian
  0.0000000000000000  2.9272060000000000  0.0000000000000000
  0.0297038680000000  3.4813774610000001 -0.7850120700000000
  0.0136517680000000  3.5532735200000003  0.7294418190000000
