 O  H 
 1.0000000000000000
    35.0000000000000000    0.0000000000000000    0.0000000000000000
     0.0000000000000000   35.0000000000000000    0.0000000000000000
     0.0000000000000000    0.0000000000000000   35.0000000000000000
 O   H  
   1   2
Cartesian
  0.0000000000000000  4.5272059999999996  0.0000000000000000
  0.0297038680000000  5.0813774610000007 -0.7850120700000000
  0.0136517680000000  5.1532735200000008  0.7294418190000000
