 H  C  O 
 1.0000000000000000
    35.0000000000000000    0.0000000000000000    0.0000000000000000
     0.0000000000000000   35.0000000000000000    0.0000000000000000
     0.0000000000000000    0.0000000000000000   35.0000000000000000
 H   C   O  
   2   1   2
Cartesian
  0.0297038680000000  4.9813774610000001 -0.7850120700000000
  0.0136517680000000  5.0532735200000003  0.7294418190000000
  0.0000000000000000  0.0882560000000000  0.0000000000000000
  0.0000000000000000  1.2272060000000000  0.0000000000000000
  0.0000000000000000  4.4272060000000000  0.0000000000000000
