 H  C  O 
 1.0000000000000000
    35.0000000000000000    0.0000000000000000    0.0000000000000000
     0.0000000000000000   35.0000000000000000    0.0000000000000000
     0.0000000000000000    0.0000000000000000   35.0000000000000000
 H   C   O  
   2   1   2
Cartesian
  0.0297038680000000  3.8813774610000000 -0.7850120700000000
  0.0136517680000000  3.9532735200000002  0.7294418190000000
  0.0000000000000000  0.0882560000000000  0.0000000000000000
  0.0000000000000000  1.2272060000000000  0.0000000000000000
  0.0000000000000000  3.3272059999999999  0.0000000000000000
