 O  H 
 1.0000000000000000
    35.0000000000000000    0.0000000000000000    0.0000000000000000
     0.0000000000000000   35.0000000000000000    0.0000000000000000
     0.0000000000000000    0.0000000000000000   35.0000000000000000
 O   H  
   1   2
Cartesian
  0.0000000000000000  4.2272059999999998  0.0000000000000000
  0.0297038680000000  4.7813774609999999 -0.7850120700000000
  0.0136517680000000  4.8532735200000001  0.7294418190000000
