O C H
1.0
35.0 0.0 0.0
0.0 35.0 0.0
0.0 0.0 35.0 
2 1 2 
Cartesian
-1.493280000 1.073689000 0.000000000
-1.170435000 -1.166590000 0.000000000
-1.888896000 -0.179692000 0.000000000
-2.979488000 -0.258829000 0.000000000
-0.498833000 1.107195000 0.000000000
