O N C H
1.0
35.0 0.0 0.0
0.0 35.0 0.0
0.0 0.0 35.0
2 7 10 11 
Cartesian
-1.867473000      0.011209000      1.912083000
-1.941678000     -0.029188000     -2.657378000
 0.935015000     -0.027980000     -0.378892000
 2.853151000      0.025803000     -1.840960000
 4.088582000     -0.005443000      1.528979000
 4.929487000      0.041240000     -0.556727000
 1.071618000     -0.076537000      1.939139000
-3.921173000     -0.000965000     -1.516366000
-1.925648000     -0.011059000     -0.363895000
 1.673964000     -0.035777000      0.742432000
 3.074796000     -0.009448000      0.599456000
 3.564611000      0.019545000     -0.705987000
 1.549076000      0.001257000     -1.580801000
 5.182992000      0.025397000      0.787218000
-4.613683000      0.016905000     -0.333652000
-3.991739000      0.021935000      0.866334000
-2.536137000      0.007465000      0.876672000
-2.539590000     -0.014947000     -1.596236000
-4.710613000      0.041337000      2.173864000
 0.879444000      0.005026000     -2.431571000
 6.188259000      0.037554000      1.173882000
 5.603537000      0.064876000     -1.303681000
 0.058692000     -0.042376000      2.003918000
 1.644380000     -0.034739000      2.761916000
-4.401717000     -0.003608000     -2.400492000
-0.883826000     -0.021617000     -0.378427000
-5.690922000      0.026935000     -0.422718000
-4.443928000     -0.830257000      2.769566000
-4.426706000      0.918618000      2.753026000
-5.788397000      0.050553000      2.024728000
