N C H
1.0
35.0 0.0 0.0
0.0 35.0 0.0
0.0 0.0 35.0 
5 5 5 
Cartesian
0.935015000     -0.027980000     -0.378892000
2.853151000      0.025803000     -1.840960000
4.088582000     -0.005443000      1.528979000
4.929487000      0.041240000     -0.556727000
1.071618000     -0.076537000      1.939139000
1.673964000     -0.035777000      0.742432000
3.074796000     -0.009448000      0.599456000
3.564611000      0.019545000     -0.705987000
1.549076000      0.001257000     -1.580801000
5.182992000      0.025397000      0.787218000
0.879444000      0.005026000     -2.431571000
6.188259000      0.037554000      1.173882000
5.603537000      0.064876000     -1.303681000
0.058692000     -0.042376000      2.003918000
1.644380000     -0.034739000      2.761916000
