C O H
1.0
35.0 0.0 0.0
0.0 35.0 0.0
0.0 0.0 35.0 
1 1 4 
Cartesian
-1.022173368 -0.741171136 -0.005454186
-0.208777390 -0.216870672 -1.032405966
0.711125931 -0.386891753 -0.773962396
-2.057491187 -0.538707333 -0.268597254
-0.907743364 -1.821826321 0.108537104
-0.824631107 -0.275494719 0.964645466
