N O H C
1.0
35.0 0.0 0.0
0.0 35.0 0.0
0.0 0.0 35.0
1 2 11 4 
Cartesian
4.239598473 1.010221364 0.183984712
-0.208777390 -0.216870672 -1.032405966
2.489266765 -0.371413707 -0.160296190
0.711125931 -0.386891753 -0.773962396
-2.057491187 -0.538707333 -0.268597254
-0.907743364 -1.821826321 0.108537104
-0.824631107 -0.275494719 0.964645466
2.504224804 2.864884988 0.405831203
1.587287052 1.757300030 1.438578200
1.168183373 1.893922631 -0.260803973
4.537610922 1.920649497 0.481671901
4.865447319 -0.680827265 -0.830936068
6.162373745 0.423633893 -0.337272809
5.381514620 -0.634416845 0.853316427
-1.022173368 -0.741171136 -0.005454186
1.997831175 1.903435905 0.440701560
2.913461558 0.748497086 0.124785348
5.222004507 -0.029889943 -0.038759109
