N O H C
1.0
35.0 0.0 0.0
0.0 35.0 0.0
0.0 0.0 35.0 
1 1 7 3 
Cartesian
4.239598473 1.010221364 0.183984712
2.489266765 -0.371413707 -0.160296190
2.504224804 2.864884988 0.405831203
1.587287052 1.757300030 1.438578200
1.168183373 1.893922631 -0.260803973
4.537610922 1.920649497 0.481671901
4.865447319 -0.680827265 -0.830936068
6.162373745 0.423633893 -0.337272809
5.381514620 -0.634416845 0.853316427
1.997831175 1.903435905 0.440701560
2.913461558 0.748497086 0.124785348
5.222004507 -0.029889943 -0.038759109
