N O H C
1.0
35.0 0.0 0.0
0.0 35.0 0.0
0.0 0.0 35.0
1 1 7 3 
Cartesian
-0.773502253      0.702512143      0.022075900
 0.099252655     -1.309616022      0.611839952
 1.641573379      1.459237915     -0.248082857
 2.315319189     -0.183554704     -0.217586349
 1.969745637      0.649360241      1.293981048
-0.569011376      1.666556766     -0.165814339
-2.144737613     -0.819407453      0.100912103
-2.640543180      0.615820352      1.003604421
-2.707743935      0.620751103     -0.768260569
 1.629714821      0.503012521      0.270111893
 0.261827758     -0.132861222      0.314562207
-2.150012139      0.265968653      0.095053281
