C H
1.0
35.0 0.0 0.0
0.0 35.0 0.0
0.0 0.0 35.0 
2 4 
Cartesian
-0.039052656 0.517582874 3.820544415
0.729457648 -0.569379055 3.890354028
-0.043934220 1.259756681 4.606426986
-0.687585409 0.685351513 2.971860851
1.374762613 -0.741204696 4.740481892
0.724345661 -1.304579181 3.098044749
