 H  O 
 1.0000000000000000
    35.0000000000000000    0.0000000000000000    0.0000000000000000
     0.0000000000000000   35.0000000000000000    0.0000000000000000
     0.0000000000000000    0.0000000000000000   35.0000000000000000
   2   1
Cartesian
  0.0240861940000000  3.7269150510000002  0.0012916600000000
  0.9847960170000000  4.8998273129999994 -0.0163366190000000
  0.0472419370000000  4.6880053420000003  0.0025334240000000
