 H  O 
 1.0000000000000000
    35.0000000000000000    0.0000000000000000    0.0000000000000000
     0.0000000000000000   35.0000000000000000    0.0000000000000000
     0.0000000000000000    0.0000000000000000   35.0000000000000000
   4   2
Cartesian
  0.0176077530000000  0.6404641599999999 -0.7613515990000000
 -0.0133778400000000  0.6316333020000000  0.7545505100000000
  0.0240861940000000  3.9269150510000004  0.0012916600000000
  0.9847960170000000  5.0998273130000005 -0.0163366190000000
  0.0000000000000000  1.2272060000000000  0.0000000000000000
  0.0472419370000000  4.8880053419999996  0.0025334240000000
