C H
1.0
35.0 0.0 0.0
0.0 35.0 0.0
0.0 0.0 35.0 
6 6 
Cartesian
0.153204042 0.145707432 4.043919807
-0.937877526 -0.609191179 4.471256076
-1.098577507 -0.903316502 5.824206143
-0.166694946 -0.442263122 6.752700221
0.924890153 0.312838932 6.327459937
1.083694047 0.606323951 4.973968620
0.275330449 0.371190888 2.993493373
-1.658382055 -0.965705436 3.747561655
-1.945685094 -1.489285066 6.154453684
-0.290588442 -0.670229283 7.802707720
1.648009238 0.670672112 7.047842591
1.930951965 1.192398746 4.643921295
