C H
1.0
35.0 0.0 0.0
0.0 35.0 0.0
0.0 0.0 35.0 
6 6 
Cartesian
 0.729188666      1.113101217      0.326728253
 1.375087369     -0.119366352      0.412776946
 0.635039807     -1.280553386      0.629385409
-0.750985629     -1.209654296      0.757890338
-1.397034430      0.022670814      0.673089633
-0.656897314      1.184296216      0.458338585
 1.303215897      2.014222336      0.159160270
 2.450514736     -0.174623998      0.313307203
 1.136334479     -2.236017467      0.700217157
-1.324525898     -2.111412827      0.924198912
-2.472425369      0.078488260      0.773997991
-1.157828445      2.140587131      0.395096082

