O C H
1.0
35.0 0.0 0.0
0.0 35.0 0.0
0.0 0.0 35.0 
1 6 6 
Cartesian
-1.388504000      1.929852000     -0.443121000
-2.007106000      0.763846000     -0.108351000
-1.463081000     -0.151912000      0.794993000
-2.147579000     -1.329509000      1.088368000
-3.374321000     -1.603143000      0.489586000
-3.914373000     -0.683855000     -0.409103000
-3.237050000      0.492961000     -0.709613000
-0.523812000      1.964652000     -0.006461000
-0.510651000      0.056657000      1.264256000
-1.715113000     -2.032145000      1.787842000
-3.902466000     -2.517387000      0.719795000
-4.867073000     -0.882294000     -0.881132000
-3.643166000      1.213434000     -1.405759000
