C H
1.0
35.0 0.0 0.0
0.0 35.0 0.0
0.0 0.0 35.0 
6 6 
Cartesian
0.780147171     -0.609914733     -1.207556891
0.477942753      0.750993631     -1.207895407
0.327289279      1.431867868      0.000000000
0.477942754      0.750993631      1.207895407
0.780147171     -0.609914733      1.207556891
0.931648311     -1.289981342      0.000000000
0.896191595     -1.137639594     -2.144144625
0.356964231      1.278167803     -2.144054074
0.091465028      2.487139215      0.000000000
0.356964231      1.278167803      2.144054074
0.896191595     -1.137639594      2.144144625
1.168485730     -2.345213690      0.000000000
