O H
1.0
35.0 0.0 0.0
0.0 35.0 0.0
0.0 0.0 35.0
1 2  
Cartesian
-2.786535929 -0.274056021 0.000000000
-2.621731934 -1.218777549 0.000000000
-1.899234986 0.097534304 0.000000000
