N C H
1.0
35.0 0.0 0.0
0.0 35.0 0.0
0.0 0.0 35.0 
1 5 5 
Cartesian
2.535982915     -0.949955697      0.042514168
3.737761731     -1.543131933      0.044594008
4.943697968     -0.848173375      0.020592628
4.911380360      0.542131082     -0.007154082
3.671700029      1.172417213     -0.009631188
2.517786458      0.392407592      0.015562480
3.732537879     -2.626094386      0.066483174
5.880136294     -1.387708553      0.023686636
5.826755297      1.117382133     -0.026335592
3.591927298      2.249975791     -0.030719752
1.537876058      0.856070174      0.013899635
