 O 
 1.0000000000000000
    35.0000000000000000    0.0000000000000000    0.0000000000000000
     0.0000000000000000   35.0000000000000000    0.0000000000000000
     0.0000000000000000    0.0000000000000000   35.0000000000000000
   2
Cartesian
  0.0000000000000000  4.8272060000000003  0.0000000000000000
  0.0000000000000000  6.0516179999999995  0.0000000000000000
