 O 
 1.0000000000000000
    35.0000000000000000    0.0000000000000000    0.0000000000000000
     0.0000000000000000   35.0000000000000000    0.0000000000000000
     0.0000000000000000    0.0000000000000000   35.0000000000000000
   4
Cartesian
  0.0000000000000000  0.0027940000000000  0.0000000000000000
  0.0000000000000000  1.2272060000000000  0.0000000000000000
  0.0000000000000000  3.7272059999999998  0.0000000000000000
  0.0000000000000000  4.9516179999999999  0.0000000000000000
