 O 
 1.0000000000000000
    35.0000000000000000    0.0000000000000000    0.0000000000000000
     0.0000000000000000   35.0000000000000000    0.0000000000000000
     0.0000000000000000    0.0000000000000000   35.0000000000000000
   4
Cartesian
  0.0000000000000000  0.0027940000000000  0.0000000000000000
  0.0000000000000000  1.2272060000000000  0.0000000000000000
  0.0000000000000000  4.1272060000000002  0.0000000000000000
  0.0000000000000000  5.3516180000000002  0.0000000000000000
