 O 
 1.0000000000000000
    35.0000000000000000    0.0000000000000000    0.0000000000000000
     0.0000000000000000   35.0000000000000000    0.0000000000000000
     0.0000000000000000    0.0000000000000000   35.0000000000000000
   2
Cartesian
  0.0000000000000000  3.1272059999999997  0.0000000000000000
  0.0000000000000000  4.3516180000000002  0.0000000000000000
