 O 
 1.0000000000000000
    35.0000000000000000    0.0000000000000000    0.0000000000000000
     0.0000000000000000   35.0000000000000000    0.0000000000000000
     0.0000000000000000    0.0000000000000000   35.0000000000000000
   2
Cartesian
  0.0000000000000000  2.9272060000000000  0.0000000000000000
  0.0000000000000000  4.1516180000000000  0.0000000000000000
