 O 
 1.0000000000000000
    35.0000000000000000    0.0000000000000000    0.0000000000000000
     0.0000000000000000   35.0000000000000000    0.0000000000000000
     0.0000000000000000    0.0000000000000000   35.0000000000000000
   2
Cartesian
  0.0000000000000000  4.5272059999999996  0.0000000000000000
  0.0000000000000000  5.7516180000000006  0.0000000000000000
