C H
1.0
35.0 0.0 0.0
0.0 35.0 0.0
0.0 0.0 35.0 
6 6 
Cartesian
1.047825000      1.421674000      0.000000000
1.454503000      0.855446000     -1.206205000
1.454503000      0.855446000      1.206205000
2.266797000     -0.277161000     -1.206954000
2.671478000     -0.845021000      0.000000000
2.266797000     -0.277161000      1.206954000
0.406025000      2.291905000      0.000000000
1.133853000      1.292059000      2.142315000
2.582494000     -0.716307000      2.143798000
3.303042000     -1.723270000      0.000000000
2.582494000     -0.716307000     -2.143798000
1.133853000      1.292059000     -2.142315000
