C H
1.0
35.0 0.0 0.0
0.0 35.0 0.0
0.0 0.0 35.0 
2 2 
Cartesian
0.000000000 0.000000000 2.900503000
0.000000000 0.000000000 1.693240000
0.000000000 0.000000000 0.627352000
0.000000000 0.000000000 3.963929000
