C H
1.0
35.0 0.0 0.0
0.0 35.0 0.0
0.0 0.0 35.0 
4 6 
Cartesian
0.000000000 -0.667578000 -2.124659000
0.000000000 0.667578000 -2.124659000
0.000000000 0.000000000 2.900503000
0.000000000 0.000000000 1.693240000
0.923621000 -1.232253000 -2.126185000
-0.923621000 -1.232253000 -2.126185000
-0.923621000 1.232253000 -2.126185000
0.923621000 1.232253000 -2.126185000
0.000000000 0.000000000 0.627352000
0.000000000 0.000000000 3.963929000
