N O H C
1.0
35.0 0.0 0.0
0.0 35.0 0.0
0.0 0.0 35.0 
1 1 7 3 
Cartesian
3.792353337 0.996640303 0.740226743
2.345890483 0.403936230 -0.891278578
2.418497147 3.098647061 -1.153442329
2.800450053 3.328462882 0.563386523
1.227466921 2.660940803 0.064023432
4.192114358 1.751573078 1.265579497
3.592622064 -1.064280389 0.724705714
5.102058458 -0.494945614 0.019181918
4.875452189 -0.438818431 1.777665838
2.293878677 2.687470330 -0.154397997
2.805870368 1.269672649 -0.152103965
4.380798676 -0.322950242 0.817726310

