 H  C  O 
 1.0000000000000000
    35.0000000000000000    0.0000000000000000    0.0000000000000000
     0.0000000000000000   35.0000000000000000    0.0000000000000000
     0.0000000000000000    0.0000000000000000   35.0000000000000000
   2   1   3
Cartesian
  0.0354096540000000  6.7541640780000005 -0.9317046060000000
  0.0000000000000000  5.5584760000000006  0.0000000000000000
  0.0000000000000000  0.0882560000000000  0.0000000000000000
  0.0000000000000000  1.2584759999999999  0.0000000000000000
  0.0000000000000000 -1.0819639999999999  0.0000000000000000
  0.0000000000000000  6.5198460000000003  0.0000000000000000
