 H  O 
 1.0000000000000000
    35.0000000000000000    0.0000000000000000    0.0000000000000000
     0.0000000000000000   35.0000000000000000    0.0000000000000000
     0.0000000000000000    0.0000000000000000   35.0000000000000000
   2   1
Cartesian
  0.0354096540000000  7.2541640780000005 -0.9317046060000000
  0.0000000000000000  6.0584760000000006  0.0000000000000000
  0.0000000000000000  7.0198460000000003  0.0000000000000000
