 H  O 
 1.0000000000000000
    35.0000000000000000    0.0000000000000000    0.0000000000000000
     0.0000000000000000   35.0000000000000000    0.0000000000000000
     0.0000000000000000    0.0000000000000000   35.0000000000000000
   2   1
Cartesian
  0.0354096540000000  3.5541640779999999 -0.9317046060000000
  0.0000000000000000  2.3584760000000000  0.0000000000000000
  0.0000000000000000  3.3198460000000001  0.0000000000000000
