 H  O 
 1.0000000000000000
    35.0000000000000000    0.0000000000000000    0.0000000000000000
     0.0000000000000000   35.0000000000000000    0.0000000000000000
     0.0000000000000000    0.0000000000000000   35.0000000000000000
   2   1
Cartesian
  0.0354096540000000  5.9541640779999998 -0.9317046060000000
  0.0000000000000000  4.7584759999999999  0.0000000000000000
  0.0000000000000000  5.7198460000000004  0.0000000000000000
