 H  O 
 1.0000000000000000
    35.0000000000000000    0.0000000000000000    0.0000000000000000
     0.0000000000000000   35.0000000000000000    0.0000000000000000
     0.0000000000000000    0.0000000000000000   35.0000000000000000
   2   1
Cartesian
  0.0354096540000000  3.8541640779999997 -0.9317046060000000
  0.0000000000000000  2.6584759999999998  0.0000000000000000
  0.0000000000000000  3.6198459999999999  0.0000000000000000
