 H  C  O 
 1.0000000000000000
    35.0000000000000000    0.0000000000000000    0.0000000000000000
     0.0000000000000000   35.0000000000000000    0.0000000000000000
     0.0000000000000000    0.0000000000000000   35.0000000000000000
   2   1   3
Cartesian
  0.0354096540000000  3.7541640779999996 -0.9317046060000000
  0.0000000000000000  2.5584759999999998  0.0000000000000000
  0.0000000000000000  0.0882560000000000  0.0000000000000000
  0.0000000000000000  1.2584759999999999  0.0000000000000000
  0.0000000000000000 -1.0819639999999999  0.0000000000000000
  0.0000000000000000  3.5198460000000003  0.0000000000000000
