 H  O 
 1.0000000000000000
    35.0000000000000000    0.0000000000000000    0.0000000000000000
     0.0000000000000000   35.0000000000000000    0.0000000000000000
     0.0000000000000000    0.0000000000000000   35.0000000000000000
   2   1
Cartesian
  0.0354096540000000  4.2541640779999996 -0.9317046060000000
  0.0000000000000000  3.0584759999999998  0.0000000000000000
  0.0000000000000000  4.0198460000000003  0.0000000000000000
