 H  O 
 1.0000000000000000
    35.0000000000000000    0.0000000000000000    0.0000000000000000
     0.0000000000000000   35.0000000000000000    0.0000000000000000
     0.0000000000000000    0.0000000000000000   35.0000000000000000
   2   1
Cartesian
  0.0354096540000000  5.5541640779999994 -0.9317046060000000
  0.0000000000000000  4.3584759999999996  0.0000000000000000
  0.0000000000000000  5.3198460000000001  0.0000000000000000
