 H  O 
 1.0000000000000000
    35.0000000000000000    0.0000000000000000    0.0000000000000000
     0.0000000000000000   35.0000000000000000    0.0000000000000000
     0.0000000000000000    0.0000000000000000   35.0000000000000000
   2   1
Cartesian
  0.0354096540000000  5.3541640780000002 -0.9317046060000000
  0.0000000000000000  4.1584760000000003  0.0000000000000000
  0.0000000000000000  5.1198459999999999  0.0000000000000000
