 H  O 
 1.0000000000000000
    35.0000000000000000    0.0000000000000000    0.0000000000000000
     0.0000000000000000   35.0000000000000000    0.0000000000000000
     0.0000000000000000    0.0000000000000000   35.0000000000000000
   2   1
Cartesian
  0.0354096540000000  3.4541640779999998 -0.9317046060000000
  0.0000000000000000  2.2584759999999999  0.0000000000000000
  0.0000000000000000  3.2198460000000000  0.0000000000000000
