 H  O 
 1.0000000000000000
    35.0000000000000000    0.0000000000000000    0.0000000000000000
     0.0000000000000000   35.0000000000000000    0.0000000000000000
     0.0000000000000000    0.0000000000000000   35.0000000000000000
   2   1
Cartesian
  0.0354096540000000  3.6541640780000000 -0.9317046060000000
  0.0000000000000000  2.4584760000000001  0.0000000000000000
  0.0000000000000000  3.4198460000000002  0.0000000000000000
