C H
1.0
35.0 0.0 0.0
0.0 35.0 0.0
0.0 0.0 35.0
5 12 
Cartesian
-2.587776049     -0.323105663      0.469458281
-1.309559821      0.497394244      0.585062602
-0.056829660     -0.368260293      0.558440171
 1.231596056      0.440065587      0.632032464
 2.472575228     -0.443144406      0.619221484
-2.610389098     -0.876366037     -0.469619463
-2.659744098     -1.051886544      1.277714106
-3.476035067      0.305624599      0.508961287
-1.317250596      1.083261898      1.506341079
-1.262376728      1.215573754     -0.236776166
-0.086175261     -1.073358819      1.395875370
-0.053809192     -0.976843331     -0.351473927
 1.213283398      1.053561928      1.534593047
 1.266297334      1.131376624     -0.213105634
 2.520718878     -1.035263421     -0.294896953
 3.387734375      0.144089745      0.683908711
 2.459297033     -1.139364229      1.458618215

