N O H C
1.0
35.0 0.0 0.0
0.0 35.0 0.0
0.0 0.0 35.0
1 1 17 7 
Cartesian
 1.176156074     -0.547612294      4.285812081
 0.070488069      1.389338834      3.891150950
-2.610389098     -0.876366037     -0.469619463
-2.659744098     -1.051886544      1.277714106
-3.476035067      0.305624599      0.508961287
-1.317250596      1.083261898      1.506341079
-1.262376728      1.215573754     -0.236776166
-0.086175261     -1.073358819      1.395875370
-0.053809192     -0.976843331     -0.351473927
 1.213283398      1.053561928      1.534593047
 1.266297334      1.131376624     -0.213105634
 2.520718878     -1.035263421     -0.294896953
 3.387734375      0.144089745      0.683908711
 2.459297033     -1.139364229      1.458618215
 2.047096327     -0.125031775      4.017149826
 1.137218110     -1.539498958      4.417235005
-1.099395174     -1.495393495      4.934570331
-1.752872703     -0.692981065      3.496632618
-1.884589126      0.092564296      5.062717818
-2.587776049     -0.323105663      0.469458281
-1.309559821      0.497394244      0.585062602
-0.056829660     -0.368260293      0.558440171
 1.231596056      0.440065587      0.632032464
 2.472575228     -0.443144406      0.619221484
 0.043575802      0.204265353      4.182992136
-1.246645178     -0.534672135      4.447445965
