N O H C
1.0
35.0 0.0 0.0
0.0 35.0 0.0
0.0 0.0 35.0
1 1 5 2  
Cartesian
 1.176156074     -0.547612294      4.285812081
 0.070488069      1.389338834      3.891150950
 2.047096327     -0.125031775      4.017149826
 1.137218110     -1.539498958      4.417235005
-1.099395174     -1.495393495      4.934570331
-1.752872703     -0.692981065      3.496632618
-1.884589126      0.092564296      5.062717818
 0.043575802      0.204265353      4.182992136
-1.246645178     -0.534672135      4.447445965
