O H
1.0
35 0.0 0.0
0.0 35 0.0
0.0 0.0 35 
2 4 
Cartesian
-0.702196054 -0.056060256 0.009942262
2.268880784 0.026340101 0.000508029
-1.022193224 0.846775782 -0.011488714
0.257521062 0.042121496 0.005218999
2.645502399 -0.412039965 0.766632411
2.641145101 -0.449872874 -0.744894473
