O H
1.0
35 0.0 0.0
0.0 35 0.0
0.0 0.0 35 
1 2 
Cartesian
2.268880784 0.026340101 0.000508029
2.645502399 -0.412039965 0.766632411
2.641145101 -0.449872874 -0.744894473
