O H
1.0
35 0.0 0.0
0.0 35 0.0
0.0 0.0 35 
1 2 
Cartesian
-0.702196054 -0.056060256 0.009942262
-1.022193224 0.846775782 -0.011488714
0.257521062 0.042121496 0.005218999
