 H  O 
 1.0000000000000000
    35.0000000000000000    0.0000000000000000    0.0000000000000000
     0.0000000000000000   35.0000000000000000    0.0000000000000000
     0.0000000000000000    0.0000000000000000   35.0000000000000000
   2   1
Cartesian
 -0.3900959260000000  4.9617231990000006 -0.6756659630000000
  0.4007516660000000  5.0191001640000001  0.6167214650000000
  0.0000000000000000  4.4000000000000004  0.0000000000000000
