 H  C  O 
 1.0000000000000000
    35.0000000000000000    0.0000000000000000    0.0000000000000000
     0.0000000000000000   35.0000000000000000    0.0000000000000000
     0.0000000000000000    0.0000000000000000   35.0000000000000000
   6   1   1
Cartesian
 -0.8915159870000000 -1.4558395110000000  0.5147169950000000
  0.8915159870000000 -1.4558395110000000  0.5147169950000000
  0.0000000000000000  0.0000000000000000  0.0000000000000000
  0.0000000000000000 -1.4558395110000000 -1.0294339900000000
 -0.3900959260000000  3.7617231990000004 -0.6756659630000000
  0.4007516660000000  3.8191001640000000  0.6167214650000000
  0.0000000000000000 -1.0918796330000000  0.0000000000000000
  0.0000000000000000  3.2000000000000002  0.0000000000000000
