 H  O 
 1.0000000000000000
    35.0000000000000000    0.0000000000000000    0.0000000000000000
     0.0000000000000000   35.0000000000000000    0.0000000000000000
     0.0000000000000000    0.0000000000000000   35.0000000000000000
   2   1
Cartesian
 -0.3900959260000000  3.8617231990000001 -0.6756659630000000
  0.4007516660000000  3.9191001640000005  0.6167214650000000
  0.0000000000000000  3.3000000000000003  0.0000000000000000
