 H  O 
 1.0000000000000000
    35.0000000000000000    0.0000000000000000    0.0000000000000000
     0.0000000000000000   35.0000000000000000    0.0000000000000000
     0.0000000000000000    0.0000000000000000   35.0000000000000000
   2   1
Cartesian
 -0.3900959260000000  4.7617231990000004 -0.6756659630000000
  0.4007516660000000  4.8191001640000000  0.6167214650000000
  0.0000000000000000  4.2000000000000002  0.0000000000000000
