 H  O 
 1.0000000000000000
    35.0000000000000000    0.0000000000000000    0.0000000000000000
     0.0000000000000000   35.0000000000000000    0.0000000000000000
     0.0000000000000000    0.0000000000000000   35.0000000000000000
   2   1
Cartesian
 -0.3900959260000000  4.1617231989999999 -0.6756659630000000
  0.4007516660000000  4.2191001640000003  0.6167214650000000
  0.0000000000000000  3.6000000000000001  0.0000000000000000
