 H  O 
 1.0000000000000000
    35.0000000000000000    0.0000000000000000    0.0000000000000000
     0.0000000000000000   35.0000000000000000    0.0000000000000000
     0.0000000000000000    0.0000000000000000   35.0000000000000000
   2   1
Cartesian
 -0.3900959260000000  4.5617231990000002 -0.6756659630000000
  0.4007516660000000  4.6191001639999998  0.6167214650000000
  0.0000000000000000  4.0000000000000000  0.0000000000000000
