 H  O 
 1.0000000000000000
    35.0000000000000000    0.0000000000000000    0.0000000000000000
     0.0000000000000000   35.0000000000000000    0.0000000000000000
     0.0000000000000000    0.0000000000000000   35.0000000000000000
   2   1
Cartesian
 -0.3900959260000000  1.8617231990000001 -0.6756659630000000
  0.4007516660000000  1.9191001640000001  0.6167214650000000
  0.0000000000000000  1.3000000000000000  0.0000000000000000
