 H  C 
 1.0000000000000000
    35.0000000000000000    0.0000000000000000    0.0000000000000000
     0.0000000000000000   35.0000000000000000    0.0000000000000000
     0.0000000000000000    0.0000000000000000   35.0000000000000000
   4   1
Cartesian
 -0.8915159870000000 -1.4558395110000000  0.5147169950000000
  0.8915159870000000 -1.4558395110000000  0.5147169950000000
  0.0000000000000000  0.0000000000000000  0.0000000000000000
  0.0000000000000000 -1.4558395110000000 -1.0294339900000000
  0.0000000000000000 -1.0918796330000000  0.0000000000000000
