C H
1.0
35.0 0.0 0.0
0.0 35.0 0.0
0.0 0.0 35.0
5 10  
Cartesian
 1.057600997     -0.863988642      4.427229255
 1.111914468      0.601963360      4.860165237
-0.055437115      1.214777837      4.089394036
-1.172381607      0.177205928      4.260422350
-0.449345262     -1.189341903      4.364079237
 1.511453506     -0.956044881      3.439246701
 1.602103497     -1.527968909      5.096426927
 2.070204459      1.074862294      4.649440948
 0.923799182      0.683600902      5.933388369
 0.218867161      1.303559440      3.035922414
-0.339851539      2.205918962      4.441028050
-1.897920886      0.200819782      3.449050438
-1.716467237      0.381903084      5.182670966
-0.692009808     -1.833498028      3.520719563
-0.764451489     -1.716744317      5.263165657
