N O H C
1.0
35.0 0.0 0.0
0.0 35.0 0.0
0.0 0.0 35.0
2 2 4 4  
Cartesian
 0.195729592     -0.844689252      0.823846417
 0.845628536      1.305991135      0.326830511
-1.993646244     -1.456265265      0.966900658
 2.422304381     -0.301716391      0.731879480
 0.450397533     -1.796752940      1.049767944
-2.506355919      1.115650590      0.363894693
-0.638435222      2.721642964     -0.006164102
 1.589692556      1.968879240      0.185959794
-1.179049195     -0.573684403      0.759483486
-1.476714706      0.811155669      0.437559516
-0.468112800      1.682962449      0.234890836
 1.254261474      0.019461869      0.636243974
