C O H
1.0
35.0 0.0 0.0
0.0 35.0 0.0
0.0 0.0 35.0 
1 1 4 
Cartesian
2.825347965 -0.426455475 -1.186977796
2.360342894 0.045174441 0.075181314
2.728325718 -0.526902962 0.752709641
2.394530870 0.224638216 -1.940091828
3.911311652 -0.375662614 -1.261289724
2.497005347 -1.446324972 -1.386058430
