O H
1.0
35 0.0 0.0
0.0 35 0.0
0.0 0.0 35 
1 2 
Cartesian
-0.525329794 -0.050971084 -0.314516861
-0.942006633 0.747901631 0.011252816
0.403696525 0.059785981 -0.073568368
