 H  O 
 1.0000000000000000
    35.0000000000000000    0.0000000000000000    0.0000000000000000
     0.0000000000000000   35.0000000000000000    0.0000000000000000
     0.0000000000000000    0.0000000000000000   35.0000000000000000
   2   1
Cartesian
  0.6759525700000000  6.5162412350000007  0.3260267380000000
 -0.5676281620000000  6.5833987020000002 -0.5388398010000000
  0.0139452820000000  5.9601415580000001 -0.0943680490000000
