 H  O 
 1.0000000000000000
    35.0000000000000000    0.0000000000000000    0.0000000000000000
     0.0000000000000000   35.0000000000000000    0.0000000000000000
     0.0000000000000000    0.0000000000000000   35.0000000000000000
   2   1
Cartesian
  0.6759525700000000  2.9162412350000002  0.3260267380000000
 -0.5676281620000000  2.9833987020000001 -0.5388398010000000
  0.0139452820000000  2.3601415580000000 -0.0943680490000000
