 H  O 
 1.0000000000000000
    35.0000000000000000    0.0000000000000000    0.0000000000000000
     0.0000000000000000   35.0000000000000000    0.0000000000000000
     0.0000000000000000    0.0000000000000000   35.0000000000000000
   2   1
Cartesian
  0.6759525700000000  5.3162412350000006  0.3260267380000000
 -0.5676281620000000  5.3833987020000009 -0.5388398010000000
  0.0139452820000000  4.7601415580000008 -0.0943680490000000
