 H  O 
 1.0000000000000000
    35.0000000000000000    0.0000000000000000    0.0000000000000000
     0.0000000000000000   35.0000000000000000    0.0000000000000000
     0.0000000000000000    0.0000000000000000   35.0000000000000000
   2   1
Cartesian
  0.6759525700000000  4.6162412350000004  0.3260267380000000
 -0.5676281620000000  4.6833987019999999 -0.5388398010000000
  0.0139452820000000  4.0601415579999998 -0.0943680490000000
