 H  N 
 1.0000000000000000
    35.0000000000000000    0.0000000000000000    0.0000000000000000
     0.0000000000000000   35.0000000000000000    0.0000000000000000
     0.0000000000000000    0.0000000000000000   35.0000000000000000
   3   1
Cartesian
  0.3600974260000000  0.0245937770000000  0.7287520150000000
 -0.0175697220000000  1.3608722920000000 -0.1159953290000000
 -1.0264360299999999  0.0860305960000000 -0.1159796680000000
 -0.0494663720000000  0.3495018760000000 -0.1378845150000000
