 H  N  O 
 1.0000000000000000
    35.0000000000000000    0.0000000000000000    0.0000000000000000
     0.0000000000000000   35.0000000000000000    0.0000000000000000
     0.0000000000000000    0.0000000000000000   35.0000000000000000
   5   1   1
Cartesian
  0.3600974260000000  0.0245937770000000  0.7287520150000000
 -0.0175697220000000  1.3608722920000000 -0.1159953290000000
 -1.0264360299999999  0.0860305960000000 -0.1159796680000000
  0.6759525700000000  2.9162412350000002  0.3260267380000000
 -0.5676281620000000  2.9833987020000001 -0.5388398010000000
 -0.0494663720000000  0.3495018760000000 -0.1378845150000000
  0.0139452820000000  2.3601415580000000 -0.0943680490000000
