 H  O 
 1.0000000000000000
    35.0000000000000000    0.0000000000000000    0.0000000000000000
     0.0000000000000000   35.0000000000000000    0.0000000000000000
     0.0000000000000000    0.0000000000000000   35.0000000000000000
   2   1
Cartesian
  0.6759525700000000  3.6162412350000004  0.3260267380000000
 -0.5676281620000000  3.6833987020000003 -0.5388398010000000
  0.0139452820000000  3.0601415580000002 -0.0943680490000000
