N C H
1.0
35.0 0.0 0.0
0.0 35.0 0.0
0.0 0.0 35.0 
1 8 7 
Cartesian
 1.564646000     -1.213781000      0.755538000
-2.022067000      0.425854000      1.901355000
-0.814942000      1.074045000      2.106698000
 0.370429000      0.449285000      1.684746000
 1.750862000      0.803894000      1.719400000
 2.445136000     -0.231074000      1.135331000
 0.286121000     -0.826949000      1.061875000
-0.928467000     -1.485312000      0.860694000
-2.079285000     -0.841767000      1.287644000
-2.941765000      0.895383000      2.223905000
-0.785153000      2.044381000      2.585609000
 2.187011000      1.699828000      2.127590000
-0.972920000     -2.455485000      0.383401000
-3.038997000     -1.320385000      1.146840000
 1.807574000     -2.036696000      0.233304000
 3.502879000     -0.348534000      0.969523000
