O N C H
1.0
35.0 0.0 0.0
0.0 35.0 0.0
0.0 0.0 35.0 
4 4 8 8 
Cartesian
 0.920593000      2.611086000     -0.626046000
 1.561109000     -0.971806000      2.129806000
-0.920593000     -2.611086000     -0.626046000
-1.561109000      0.971806000      2.129806000
 2.011359000     -1.213207000     -0.098067000
 1.376888000      0.839745000      0.734636000
-2.011359000      1.213207000     -0.098067000
-1.376888000     -0.839745000      0.734636000
 2.025708000     -0.697180000     -1.364403000
 1.714523000      0.591965000     -1.612489000
 1.308960000      1.457534000     -0.520589000
 1.645991000     -0.485211000      1.018727000
-2.025708000      0.697180000     -1.364403000
-1.714523000     -0.591965000     -1.612489000
-1.308960000     -1.457534000     -0.520589000
-1.645991000      0.485211000      1.018727000
 2.297521000     -1.391059000     -2.145646000
 1.727287000      0.990847000     -2.612005000
 1.051804000      1.386223000      1.523371000
 2.129463000     -2.201505000      0.056813000
-2.297521000      1.391059000     -2.145646000
-1.727287000     -0.990847000     -2.612005000
-1.051804000     -1.386223000      1.523371000
-2.129463000      2.201505000      0.056813000
