O H
1.0
35.0 0.0 0.0
0.0 35.0 0.0
0.0 0.0 35.0
1 2  
Cartesian
-2.788527000     -0.274485000      0.000000000
-2.622911000     -1.219083000      0.000000000
-1.901510000      0.097911000      0.000000000
