C H
1.0
35.0 0.0 0.0
0.0 35.0 0.0
0.0 0.0 35.0 
6 6 
Cartesian
0.780612000 -0.609888000 -1.207543000
0.478404000 0.751041000 -1.207904000
0.327659000 1.431857000 0.000000000
0.478404000 0.751041000 1.207904000
0.780612000 -0.609888000 1.207543000
0.932151000 -1.289961000 0.000000000
0.896669000 -1.137605000 -2.144148000
0.357390000 1.278209000 -2.144055000
0.091859000 2.487141000 0.000000000
0.357390000 1.278209000 2.144055000
0.896669000 -1.137605000 2.144148000
1.169006000 -2.345167000 0.000000000
