N C H
1.0
35.0 0.0 0.0
0.0 35.0 0.0
0.0 0.0 35.0 
1 1 5 
Cartesian
-0.893451216 -0.043844322 -0.042997455
-1.175782475 0.757907695 1.145237192
0.096948261 -0.256059448 -0.071069928
-1.368438791 -0.933390652 0.033837726
-2.241626604 0.972216010 1.195024643
-0.880789552 0.304246738 2.097209096
-0.663005722 1.714329397 1.060809164
