N O H C
1.0
35.0 0.0 0.0
0.0 35.0 0.0
0.0 0.0 35.0 
1 1 9 2 
Cartesian
-0.893451216 -0.043844322 -0.042997455
2.347029341 -0.041510359 0.030653933
0.096948261 -0.256059448 -0.071069928
-1.368438791 -0.933390652 0.033837726
-2.241626604 0.972216010 1.195024643
-0.880789552 0.304246738 2.097209096
-0.663005722 1.714329397 1.060809164
2.629055460 0.328438406 -0.809210147
2.409760140 0.440441229 1.993156639
3.813998427 1.009157371 1.089130062
2.254468627 1.843671747 0.934913560
-1.175782475 0.757907695 1.145237192
2.732943189 0.870073902 1.050090095

