C O H
1.0
35 0.0 0.0
0.0 35 0.0
0.0 0.0 35 
1 1 4 
Cartesian
2.732943189 0.870073902 1.050090095
2.347029341 -0.041510359 0.030653933
2.629055460 0.328438406 -0.809210147
2.409760140 0.440441229 1.993156639
3.813998427 1.009157371 1.089130062
2.254468627 1.843671747 0.934913560
2.347029341 -0.041510359 0.030653933
