 H  O 
 1.0000000000000000
    35.0000000000000000    0.0000000000000000    0.0000000000000000
     0.0000000000000000   35.0000000000000000    0.0000000000000000
     0.0000000000000000    0.0000000000000000   35.0000000000000000
   2   1
Cartesian
  0.0297038680000000  3.6813774609999999 -0.7850120700000000
  0.0136517680000000  3.7532735200000000  0.7294418190000000
  0.0000000000000000  3.1272059999999997  0.0000000000000000
