 H  O 
 1.0000000000000000
    35.0000000000000000    0.0000000000000000    0.0000000000000000
     0.0000000000000000   35.0000000000000000    0.0000000000000000
     0.0000000000000000    0.0000000000000000   35.0000000000000000
   2   1
Cartesian
  0.0297038680000000  5.8813774609999996 -0.7850120700000000
  0.0136517680000000  5.9532735199999998  0.7294418190000000
  0.0000000000000000  5.3272060000000003  0.0000000000000000
