 H  O 
 1.0000000000000000
    35.0000000000000000    0.0000000000000000    0.0000000000000000
     0.0000000000000000   35.0000000000000000    0.0000000000000000
     0.0000000000000000    0.0000000000000000   35.0000000000000000
   2   1
Cartesian
  0.0297038680000000  2.9813774610000001 -0.7850120700000000
  0.0136517680000000  3.0532735200000003  0.7294418190000000
  0.0000000000000000  2.4272060000000000  0.0000000000000000
