 H  O 
 1.0000000000000000
    35.0000000000000000    0.0000000000000000    0.0000000000000000
     0.0000000000000000   35.0000000000000000    0.0000000000000000
     0.0000000000000000    0.0000000000000000   35.0000000000000000
   4   2
Cartesian
  0.0176077530000000  0.6404641599999999 -0.7613515990000000
 -0.0133778400000000  0.6316333020000000  0.7545505100000000
  0.0297038680000000  5.0813774610000007 -0.7850120700000000
  0.0136517680000000  5.1532735200000008  0.7294418190000000
  0.0000000000000000  1.2272060000000000  0.0000000000000000
  0.0000000000000000  4.5272059999999996  0.0000000000000000
