 H  O 
 1.0000000000000000
    35.0000000000000000    0.0000000000000000    0.0000000000000000
     0.0000000000000000   35.0000000000000000    0.0000000000000000
     0.0000000000000000    0.0000000000000000   35.0000000000000000
   2   1
Cartesian
  0.0297038680000000  3.5813774609999998 -0.7850120700000000
  0.0136517680000000  3.6532735199999999  0.7294418190000000
  0.0000000000000000  3.0272059999999996  0.0000000000000000
