 H  O 
 1.0000000000000000
    35.0000000000000000    0.0000000000000000    0.0000000000000000
     0.0000000000000000   35.0000000000000000    0.0000000000000000
     0.0000000000000000    0.0000000000000000   35.0000000000000000
   2   1
Cartesian
  0.0297038680000000  2.8813774610000000 -0.7850120700000000
  0.0136517680000000  2.9532735200000002  0.7294418190000000
  0.0000000000000000  2.3272059999999999  0.0000000000000000
