 H  O 
 1.0000000000000000
    35.0000000000000000    0.0000000000000000    0.0000000000000000
     0.0000000000000000   35.0000000000000000    0.0000000000000000
     0.0000000000000000    0.0000000000000000   35.0000000000000000
   2   1
Cartesian
  0.0297038680000000  4.6813774610000003 -0.7850120700000000
  0.0136517680000000  4.7532735200000005  0.7294418190000000
  0.0000000000000000  4.1272060000000002  0.0000000000000000
