C H
1.0
35.0 0.0 0.0
0.0 35.0 0.0
0.0 0.0 35.0 
8 8 
Cartesian
0.836611945 1.114856004 0.231007899
1.384187808 -0.166965327 0.260056882
0.547479343 -1.281846518 0.286930509
-0.836667095 -1.115003650 0.284562794
-1.384162741 0.166850149 0.255605400
-0.547498329 1.281748263 0.228977433
0.005828247 0.074617170 3.756732213
0.009488694 0.094198024 4.969108386
1.485452496 1.979680492 0.214704905
2.457684188 -0.296287533 0.266059770
0.971917839 -2.275979177 0.313876700
-1.485553528 -1.979568513 0.309697837
-2.457644693 0.296459269 0.258540553
-0.972141239 2.276001368 0.211160926
0.002819113 0.057061622 2.692656708
0.012601102 0.111370952 6.030305397
