C H
1.0
35.0 0.0 0.0
0.0 35.0 0.0
0.0 0.0 35.0 
2 2 
Cartesian
0.005828247 0.074617170 3.756732213
0.009488694 0.094198024 4.969108386
0.002819113 0.057061622 2.692656708
0.012601102 0.111370952 6.030305397
