C H
1.0
35.0 0.0 0.0
0.0 35.0 0.0
0.0 0.0 35.0 
6 6 
Cartesian
 1.393218000      0.036291000     -0.633280000
 0.728036000     -1.188402000     -0.633302000
-0.665180000     -1.224708000     -0.633280000
-1.393204000     -0.036297000     -0.633302000
-0.728038000      1.188416000     -0.633280000
 0.665168000      1.224699000     -0.633302000
 2.474274000      0.064448000     -0.631724000
 1.292959000     -2.110541000     -0.631740000
-1.181323000     -2.175008000     -0.631724000
-2.474261000     -0.064465000     -0.631740000
-1.292951000      2.110560000     -0.631724000
 1.181303000      2.175006000     -0.631740000
