C H
1.0
35.0 0.0 0.0
0.0 35.0 0.0
0.0 0.0 35.0
2 4
Cartesian  
 0.000000000     -0.667578000     -2.124659000
 0.000000000      0.667578000     -2.124659000
 0.923621000     -1.232253000     -2.126185000
-0.923621000     -1.232253000     -2.126185000
-0.923621000      1.232253000     -2.126185000
 0.923621000      1.232253000     -2.126185000
