C O H
1.0
35.0 0.0 0.0
0.0 35.0 0.0
0.0 0.0 35.0 
2 2 8 
Cartesian
-1.152065407 -1.311287783 0.015259549
2.750077935 0.033681189 1.308179516
-0.636134928 -0.023282411 0.280599321
2.241244009 -0.123337749 -0.013537808
0.308097372 -0.047078748 0.076463691
-2.209945023 -1.296265392 0.263955863
-1.056610240 -1.592670859 -1.036190606
-0.674835746 -2.086272765 0.620511449
2.710033319 0.491046775 -0.583203762
2.196508855 -0.654515238 1.938310396
3.809074037 -0.216757710 1.364902657
2.597638297 1.044375242 1.686072062
