C O H
1.0
35.0 0.0 0.0
0.0 35.0 0.0
0.0 0.0 35.0 
1 1 4 
Cartesian
2.750077935 0.033681189 1.308179516
2.241244009 -0.123337749 -0.013537808
2.710033319 0.491046775 -0.583203762
2.196508855 -0.654515238 1.938310396
3.809074037 -0.216757710 1.364902657
2.597638297 1.044375242 1.686072062
