C O H
1.0
35.0 0.0 0.0
0.0 35.0 0.0
0.0 0.0 35.0 
1 1 4 
Cartesian
-1.152065407 -1.311287783 0.015259549
-0.636134928 -0.023282411 0.280599321
0.308097372 -0.047078748 0.076463691
-2.209945023 -1.296265392 0.263955863
-1.056610240 -1.592670859 -1.036190606
-0.674835746 -2.086272765 0.620511449
