C H
1.0
35.0 0.0 0.0
0.0 35.0 0.0
0.0 0.0 35.0 
6 6 
Cartesian
-1.394063000 0.000000000 -2.454152000
-0.697047000 1.207238000 -2.454628000
0.697047000 1.207238000 -2.454628000
1.394063000 0.000000000 -2.454152000
0.697047000 -1.207238000 -2.454628000
-0.697047000 -1.207238000 -2.454628000
-2.475399000 0.000000000 -2.450322000
-1.238232000 2.143565000 -2.453676000
1.238232000 2.143565000 -2.453676000
2.475399000 0.000000000 -2.450322000
1.238232000 -2.143565000 -2.453676000
-1.238232000 -2.143565000 -2.453676000
