C H
1.0
35.0 0.0 0.0
0.0 35.0 0.0
0.0 0.0 35.0 
12 12 
Cartesian
0.000000000 0.000000000 1.059035000
0.000000000 -1.206008000 1.757674000
0.000000000 -1.207177000 3.151591000
0.000000000 0.000000000 3.848575000
0.000000000 1.207177000 3.151591000
0.000000000 1.206008000 1.757674000
-1.394063000 0.000000000 -2.454152000
-0.697047000 1.207238000 -2.454628000
0.697047000 1.207238000 -2.454628000
1.394063000 0.000000000 -2.454152000
0.697047000 -1.207238000 -2.454628000
-0.697047000 -1.207238000 -2.454628000
0.000000000 0.000000000 -0.021580000
0.000000000 -2.141639000 1.214422000
0.000000000 -2.143566000 3.692995000
0.000000000 0.000000000 4.930150000
0.000000000 2.143566000 3.692995000
0.000000000 2.141639000 1.214422000
-2.475399000 0.000000000 -2.450322000
-1.238232000 2.143565000 -2.453676000
1.238232000 2.143565000 -2.453676000
2.475399000 0.000000000 -2.450322000
1.238232000 -2.143565000 -2.453676000
-1.238232000 -2.143565000 -2.453676000
