O H
1.0
35.0 0.0 0.0
0.0 35.0 0.0
0.0 0.0 35.0 
1 2
Cartesian
-0.687464896 -0.111744327 -0.019625472
-1.046121544 0.775938208 0.012706845
0.274042519 0.025850654 -0.003497262
