N C H
1.0
35.0 0.0 0.0
0.0 35.0 0.0
0.0 0.0 35.0 
1 1 5 
Cartesian
2.430610125 -0.460425723 0.199956645
2.590840101 0.674784870 1.113631949
2.726878795 -0.185887988 -0.728028598
3.054159792 -1.208116039 0.475151508
2.320649797 0.360089090 2.119285058
3.598250412 1.096561429 1.150603683
1.898299718 1.460560352 0.820974703
