N C H
1.0
35.0 0.0 0.0
0.0 35.0 0.0
0.0 0.0 35.0 
2 2 10 
Cartesian
-0.638641380 0.470916372 0.044568477
2.430610125 -0.460425723 0.199956645
-1.198658820 0.391398577 1.391946599
2.590840101 0.674784870 1.113631949
0.189954359 -0.113937162 -0.005773605
-1.300468945 0.081256802 -0.613668480
-2.092737771 1.009244715 1.453167495
-1.462745512 -0.615843668 1.729452190
-0.480275539 0.798674912 2.101087305
2.726878795 -0.185887988 -0.728028598
3.054159792 -1.208116039 0.475151508
2.320649797 0.360089090 2.119285058
3.598250412 1.096561429 1.150603683
1.898299718 1.460560352 0.820974703
