N C H
1.0
35.0 0.0 0.0
0.0 35.0 0.0
0.0 0.0 35.0 
1 1 5 
Cartesian
-0.638641380 0.470916372 0.044568477
-1.198658820 0.391398577 1.391946599
0.189954359 -0.113937162 -0.005773605
-1.300468945 0.081256802 -0.613668480
-2.092737771 1.009244715 1.453167495
-1.462745512 -0.615843668 1.729452190
-0.480275539 0.798674912 2.101087305
